p cnf 1530 32752
13 0
30 0
21 0
34 0
1 0
23 0
8 0
27 0
946 0
959 0
942 0
956 0
930 0
949 0
937 0
953 0
1 2 3 4 5 6 0
-1 -2 0
-1 -3 0
-1 -4 0
-1 -5 0
-1 -6 0
-2 -3 0
-2 -4 0
-2 -5 0
-2 -6 0
-3 -4 0
-3 -5 0
-3 -6 0
-4 -5 0
-4 -6 0
-5 -6 0
22 23 24 25 0
-22 -23 0
-22 -24 0
-22 -25 0
-23 -24 0
-23 -25 0
-24 -25 0
7 8 9 10 11 12 0
-7 -8 0
-7 -9 0
-7 -10 0
-7 -11 0
-7 -12 0
-8 -9 0
-8 -10 0
-8 -11 0
-8 -12 0
-9 -10 0
-9 -11 0
-9 -12 0
-10 -11 0
-10 -12 0
-11 -12 0
26 27 28 29 0
-26 -27 0
-26 -28 0
-26 -29 0
-27 -28 0
-27 -29 0
-28 -29 0
13 14 15 16 17 0
-13 -14 0
-13 -15 0
-13 -16 0
-13 -17 0
-14 -15 0
-14 -16 0
-14 -17 0
-15 -16 0
-15 -17 0
-16 -17 0
30 31 32 33 0
-30 -31 0
-30 -32 0
-30 -33 0
-31 -32 0
-31 -33 0
-32 -33 0
18 19 20 21 0
-18 -19 0
-18 -20 0
-18 -21 0
-19 -20 0
-19 -21 0
-20 -21 0
34 35 36 37 0
-34 -35 0
-34 -36 0
-34 -37 0
-35 -36 0
-35 -37 0
-36 -37 0
-42 1 0
-1 42 0
-66 42 0
-66 22 0
-42 -22 66 0
-67 42 0
-67 23 0
-42 -23 67 0
-68 42 0
-68 24 0
-42 -24 68 0
-69 42 0
-69 25 0
-42 -25 69 0
-43 2 0
-2 43 0
-70 43 0
-70 22 0
-43 -22 70 0
-71 43 0
-71 23 0
-43 -23 71 0
-72 43 0
-72 24 0
-43 -24 72 0
-73 43 0
-73 25 0
-43 -25 73 0
-44 3 0
-3 44 0
-74 44 0
-74 22 0
-44 -22 74 0
-75 44 0
-75 23 0
-44 -23 75 0
-76 44 0
-76 24 0
-44 -24 76 0
-77 44 0
-77 25 0
-44 -25 77 0
-45 4 0
-4 45 0
-78 45 0
-78 22 0
-45 -22 78 0
-79 45 0
-79 23 0
-45 -23 79 0
-80 45 0
-80 24 0
-45 -24 80 0
-81 45 0
-81 25 0
-45 -25 81 0
-46 5 0
-5 46 0
-82 46 0
-82 22 0
-46 -22 82 0
-83 46 0
-83 23 0
-46 -23 83 0
-84 46 0
-84 24 0
-46 -24 84 0
-85 46 0
-85 25 0
-46 -25 85 0
-47 6 0
-6 47 0
-86 47 0
-86 22 0
-47 -22 86 0
-87 47 0
-87 23 0
-47 -23 87 0
-88 47 0
-88 24 0
-47 -24 88 0
-89 47 0
-89 25 0
-47 -25 89 0
-48 7 0
-7 48 0
-90 48 0
-90 26 0
-48 -26 90 0
-91 48 0
-91 27 0
-48 -27 91 0
-92 48 0
-92 28 0
-48 -28 92 0
-93 48 0
-93 29 0
-48 -29 93 0
-49 8 0
-8 49 0
-94 49 0
-94 26 0
-49 -26 94 0
-95 49 0
-95 27 0
-49 -27 95 0
-96 49 0
-96 28 0
-49 -28 96 0
-97 49 0
-97 29 0
-49 -29 97 0
-50 9 0
-9 50 0
-98 50 0
-98 26 0
-50 -26 98 0
-99 50 0
-99 27 0
-50 -27 99 0
-100 50 0
-100 28 0
-50 -28 100 0
-101 50 0
-101 29 0
-50 -29 101 0
-51 10 0
-10 51 0
-102 51 0
-102 26 0
-51 -26 102 0
-103 51 0
-103 27 0
-51 -27 103 0
-104 51 0
-104 28 0
-51 -28 104 0
-105 51 0
-105 29 0
-51 -29 105 0
-52 11 0
-11 52 0
-106 52 0
-106 26 0
-52 -26 106 0
-107 52 0
-107 27 0
-52 -27 107 0
-108 52 0
-108 28 0
-52 -28 108 0
-109 52 0
-109 29 0
-52 -29 109 0
-53 12 0
-12 53 0
-110 53 0
-110 26 0
-53 -26 110 0
-111 53 0
-111 27 0
-53 -27 111 0
-112 53 0
-112 28 0
-53 -28 112 0
-113 53 0
-113 29 0
-53 -29 113 0
-54 13 0
-13 54 0
-114 54 0
-114 30 0
-54 -30 114 0
-115 54 0
-115 31 0
-54 -31 115 0
-116 54 0
-116 32 0
-54 -32 116 0
-117 54 0
-117 33 0
-54 -33 117 0
-55 13 14 0
-13 55 0
-14 55 0
-118 55 0
-118 30 0
-55 -30 118 0
-119 55 0
-119 31 0
-55 -31 119 0
-120 55 0
-120 32 0
-55 -32 120 0
-121 55 0
-121 33 0
-55 -33 121 0
-56 14 15 0
-14 56 0
-15 56 0
-122 56 0
-122 30 0
-56 -30 122 0
-123 56 0
-123 31 0
-56 -31 123 0
-124 56 0
-124 32 0
-56 -32 124 0
-125 56 0
-125 33 0
-56 -33 125 0
-57 15 16 0
-15 57 0
-16 57 0
-126 57 0
-126 30 0
-57 -30 126 0
-127 57 0
-127 31 0
-57 -31 127 0
-128 57 0
-128 32 0
-57 -32 128 0
-129 57 0
-129 33 0
-57 -33 129 0
-58 16 17 0
-16 58 0
-17 58 0
-130 58 0
-130 30 0
-58 -30 130 0
-131 58 0
-131 31 0
-58 -31 131 0
-132 58 0
-132 32 0
-58 -32 132 0
-133 58 0
-133 33 0
-58 -33 133 0
-59 17 0
-17 59 0
-134 59 0
-134 30 0
-59 -30 134 0
-135 59 0
-135 31 0
-59 -31 135 0
-136 59 0
-136 32 0
-59 -32 136 0
-137 59 0
-137 33 0
-59 -33 137 0
-60 18 0
-18 60 0
-138 60 0
-138 34 0
-60 -34 138 0
-139 60 0
-139 35 0
-60 -35 139 0
-140 60 0
-140 36 0
-60 -36 140 0
-141 60 0
-141 37 0
-60 -37 141 0
-61 18 19 0
-18 61 0
-19 61 0
-142 61 0
-142 34 0
-61 -34 142 0
-143 61 0
-143 35 0
-61 -35 143 0
-144 61 0
-144 36 0
-61 -36 144 0
-145 61 0
-145 37 0
-61 -37 145 0
-62 18 19 20 0
-18 62 0
-19 62 0
-20 62 0
-146 62 0
-146 34 0
-62 -34 146 0
-147 62 0
-147 35 0
-62 -35 147 0
-148 62 0
-148 36 0
-62 -36 148 0
-149 62 0
-149 37 0
-62 -37 149 0
-63 19 20 21 0
-19 63 0
-20 63 0
-21 63 0
-150 63 0
-150 34 0
-63 -34 150 0
-151 63 0
-151 35 0
-63 -35 151 0
-152 63 0
-152 36 0
-63 -36 152 0
-153 63 0
-153 37 0
-63 -37 153 0
-64 20 21 0
-20 64 0
-21 64 0
-154 64 0
-154 34 0
-64 -34 154 0
-155 64 0
-155 35 0
-64 -35 155 0
-156 64 0
-156 36 0
-64 -36 156 0
-157 64 0
-157 37 0
-64 -37 157 0
-65 21 0
-21 65 0
-158 65 0
-158 34 0
-65 -34 158 0
-159 65 0
-159 35 0
-65 -35 159 0
-160 65 0
-160 36 0
-65 -36 160 0
-161 65 0
-161 37 0
-65 -37 161 0
-162 66 90 114 138 0
-66 162 0
-90 162 0
-114 162 0
-138 162 0
-163 67 91 115 139 0
-67 163 0
-91 163 0
-115 163 0
-139 163 0
-164 68 92 116 140 0
-68 164 0
-92 164 0
-116 164 0
-140 164 0
-165 69 93 117 141 0
-69 165 0
-93 165 0
-117 165 0
-141 165 0
-166 70 94 118 142 0
-70 166 0
-94 166 0
-118 166 0
-142 166 0
-167 71 95 119 143 0
-71 167 0
-95 167 0
-119 167 0
-143 167 0
-168 72 96 120 144 0
-72 168 0
-96 168 0
-120 168 0
-144 168 0
-169 73 97 121 145 0
-73 169 0
-97 169 0
-121 169 0
-145 169 0
-170 74 98 122 146 0
-74 170 0
-98 170 0
-122 170 0
-146 170 0
-171 75 99 123 147 0
-75 171 0
-99 171 0
-123 171 0
-147 171 0
-172 76 100 124 148 0
-76 172 0
-100 172 0
-124 172 0
-148 172 0
-173 77 101 125 149 0
-77 173 0
-101 173 0
-125 173 0
-149 173 0
-174 78 102 126 150 0
-78 174 0
-102 174 0
-126 174 0
-150 174 0
-175 79 103 127 151 0
-79 175 0
-103 175 0
-127 175 0
-151 175 0
-176 80 104 128 152 0
-80 176 0
-104 176 0
-128 176 0
-152 176 0
-177 81 105 129 153 0
-81 177 0
-105 177 0
-129 177 0
-153 177 0
-178 82 106 130 154 0
-82 178 0
-106 178 0
-130 178 0
-154 178 0
-179 83 107 131 155 0
-83 179 0
-107 179 0
-131 179 0
-155 179 0
-180 84 108 132 156 0
-84 180 0
-108 180 0
-132 180 0
-156 180 0
-181 85 109 133 157 0
-85 181 0
-109 181 0
-133 181 0
-157 181 0
-182 86 110 134 158 0
-86 182 0
-110 182 0
-134 182 0
-158 182 0
-183 87 111 135 159 0
-87 183 0
-111 183 0
-135 183 0
-159 183 0
-184 88 112 136 160 0
-88 184 0
-112 184 0
-136 184 0
-160 184 0
-185 89 113 137 161 0
-89 185 0
-113 185 0
-137 185 0
-161 185 0
-66 -90 0
-66 -114 0
-66 -138 0
-90 -114 0
-90 -138 0
-114 -138 0
-67 -91 0
-67 -115 0
-67 -139 0
-91 -115 0
-91 -139 0
-115 -139 0
-68 -92 0
-68 -116 0
-68 -140 0
-92 -116 0
-92 -140 0
-116 -140 0
-69 -93 0
-69 -117 0
-69 -141 0
-93 -117 0
-93 -141 0
-117 -141 0
-70 -94 0
-70 -118 0
-70 -142 0
-94 -118 0
-94 -142 0
-118 -142 0
-71 -95 0
-71 -119 0
-71 -143 0
-95 -119 0
-95 -143 0
-119 -143 0
-72 -96 0
-72 -120 0
-72 -144 0
-96 -120 0
-96 -144 0
-120 -144 0
-73 -97 0
-73 -121 0
-73 -145 0
-97 -121 0
-97 -145 0
-121 -145 0
-74 -98 0
-74 -122 0
-74 -146 0
-98 -122 0
-98 -146 0
-122 -146 0
-75 -99 0
-75 -123 0
-75 -147 0
-99 -123 0
-99 -147 0
-123 -147 0
-76 -100 0
-76 -124 0
-76 -148 0
-100 -124 0
-100 -148 0
-124 -148 0
-77 -101 0
-77 -125 0
-77 -149 0
-101 -125 0
-101 -149 0
-125 -149 0
-78 -102 0
-78 -126 0
-78 -150 0
-102 -126 0
-102 -150 0
-126 -150 0
-79 -103 0
-79 -127 0
-79 -151 0
-103 -127 0
-103 -151 0
-127 -151 0
-80 -104 0
-80 -128 0
-80 -152 0
-104 -128 0
-104 -152 0
-128 -152 0
-81 -105 0
-81 -129 0
-81 -153 0
-105 -129 0
-105 -153 0
-129 -153 0
-82 -106 0
-82 -130 0
-82 -154 0
-106 -130 0
-106 -154 0
-130 -154 0
-83 -107 0
-83 -131 0
-83 -155 0
-107 -131 0
-107 -155 0
-131 -155 0
-84 -108 0
-84 -132 0
-84 -156 0
-108 -132 0
-108 -156 0
-132 -156 0
-85 -109 0
-85 -133 0
-85 -157 0
-109 -133 0
-109 -157 0
-133 -157 0
-86 -110 0
-86 -134 0
-86 -158 0
-110 -134 0
-110 -158 0
-134 -158 0
-87 -111 0
-87 -135 0
-87 -159 0
-111 -135 0
-111 -159 0
-135 -159 0
-88 -112 0
-88 -136 0
-88 -160 0
-112 -136 0
-112 -160 0
-136 -160 0
-89 -113 0
-89 -137 0
-89 -161 0
-113 -137 0
-113 -161 0
-137 -161 0
-1 -23 162 0
-1 -24 163 0
-1 -25 164 0
-2 -23 166 0
-2 -24 167 0
-2 -25 168 0
-3 -23 170 0
-3 -24 171 0
-3 -25 172 0
-4 -23 174 0
-4 -24 175 0
-4 -25 176 0
-5 -23 178 0
-5 -24 179 0
-5 -25 180 0
-6 -23 182 0
-6 -24 183 0
-6 -25 184 0
-7 -27 162 0
-7 -28 163 0
-7 -29 164 0
-8 -27 166 0
-8 -28 167 0
-8 -29 168 0
-9 -27 170 0
-9 -28 171 0
-9 -29 172 0
-10 -27 174 0
-10 -28 175 0
-10 -29 176 0
-11 -27 178 0
-11 -28 179 0
-11 -29 180 0
-12 -27 182 0
-12 -28 183 0
-12 -29 184 0
-13 -31 162 166 0
-13 -32 163 167 0
-13 -33 164 168 0
-14 -31 166 170 0
-14 -32 167 171 0
-14 -33 168 172 0
-15 -31 170 174 0
-15 -32 171 175 0
-15 -33 172 176 0
-16 -31 174 178 0
-16 -32 175 179 0
-16 -33 176 180 0
-17 -31 178 182 0
-17 -32 179 183 0
-17 -33 180 184 0
-18 -35 162 166 0
-18 -35 162 170 0
-18 -35 166 170 0
-18 -36 163 167 0
-18 -36 163 171 0
-18 -36 167 171 0
-18 -37 164 168 0
-18 -37 164 172 0
-18 -37 168 172 0
-19 -35 166 170 0
-19 -35 166 174 0
-19 -35 170 174 0
-19 -36 167 171 0
-19 -36 167 175 0
-19 -36 171 175 0
-19 -37 168 172 0
-19 -37 168 176 0
-19 -37 172 176 0
-20 -35 170 174 0
-20 -35 170 178 0
-20 -35 174 178 0
-20 -36 171 175 0
-20 -36 171 179 0
-20 -36 175 179 0
-20 -37 172 176 0
-20 -37 172 180 0
-20 -37 176 180 0
-21 -35 174 178 0
-21 -35 174 182 0
-21 -35 178 182 0
-21 -36 175 179 0
-21 -36 175 183 0
-21 -36 179 183 0
-21 -37 176 180 0
-21 -37 176 184 0
-21 -37 180 184 0
-1 -22 -38 -163 0
-1 -22 38 163 0
-1 -23 -38 -164 0
-1 -23 38 164 0
-1 -24 -38 -165 0
-1 -24 38 165 0
-1 -25 38 0
-2 -22 -38 -167 0
-2 -22 38 167 0
-2 -23 -38 -168 0
-2 -23 38 168 0
-2 -24 -38 -169 0
-2 -24 38 169 0
-2 -25 38 0
-3 -22 -38 -171 0
-3 -22 38 171 0
-3 -23 -38 -172 0
-3 -23 38 172 0
-3 -24 -38 -173 0
-3 -24 38 173 0
-3 -25 38 0
-4 -22 -38 -175 0
-4 -22 38 175 0
-4 -23 -38 -176 0
-4 -23 38 176 0
-4 -24 -38 -177 0
-4 -24 38 177 0
-4 -25 38 0
-5 -22 -38 -179 0
-5 -22 38 179 0
-5 -23 -38 -180 0
-5 -23 38 180 0
-5 -24 -38 -181 0
-5 -24 38 181 0
-5 -25 38 0
-6 -22 -38 -183 0
-6 -22 38 183 0
-6 -23 -38 -184 0
-6 -23 38 184 0
-6 -24 -38 -185 0
-6 -24 38 185 0
-6 -25 38 0
-7 -26 -39 -163 0
-7 -26 39 163 0
-7 -27 -39 -164 0
-7 -27 39 164 0
-7 -28 -39 -165 0
-7 -28 39 165 0
-7 -29 39 0
-8 -26 -39 -167 0
-8 -26 39 167 0
-8 -27 -39 -168 0
-8 -27 39 168 0
-8 -28 -39 -169 0
-8 -28 39 169 0
-8 -29 39 0
-9 -26 -39 -171 0
-9 -26 39 171 0
-9 -27 -39 -172 0
-9 -27 39 172 0
-9 -28 -39 -173 0
-9 -28 39 173 0
-9 -29 39 0
-10 -26 -39 -175 0
-10 -26 39 175 0
-10 -27 -39 -176 0
-10 -27 39 176 0
-10 -28 -39 -177 0
-10 -28 39 177 0
-10 -29 39 0
-11 -26 -39 -179 0
-11 -26 39 179 0
-11 -27 -39 -180 0
-11 -27 39 180 0
-11 -28 -39 -181 0
-11 -28 39 181 0
-11 -29 39 0
-12 -26 -39 -183 0
-12 -26 39 183 0
-12 -27 -39 -184 0
-12 -27 39 184 0
-12 -28 -39 -185 0
-12 -28 39 185 0
-12 -29 39 0
-13 -30 -40 -163 0
-13 -30 -40 -167 0
-13 -30 40 163 167 0
-13 -31 -40 -164 0
-13 -31 -40 -168 0
-13 -31 40 164 168 0
-13 -32 -40 -165 0
-13 -32 -40 -169 0
-13 -32 40 165 169 0
-13 -33 40 0
-14 -30 -40 -167 0
-14 -30 -40 -171 0
-14 -30 40 167 171 0
-14 -31 -40 -168 0
-14 -31 -40 -172 0
-14 -31 40 168 172 0
-14 -32 -40 -169 0
-14 -32 -40 -173 0
-14 -32 40 169 173 0
-14 -33 40 0
-15 -30 -40 -171 0
-15 -30 -40 -175 0
-15 -30 40 171 175 0
-15 -31 -40 -172 0
-15 -31 -40 -176 0
-15 -31 40 172 176 0
-15 -32 -40 -173 0
-15 -32 -40 -177 0
-15 -32 40 173 177 0
-15 -33 40 0
-16 -30 -40 -175 0
-16 -30 -40 -179 0
-16 -30 40 175 179 0
-16 -31 -40 -176 0
-16 -31 -40 -180 0
-16 -31 40 176 180 0
-16 -32 -40 -177 0
-16 -32 -40 -181 0
-16 -32 40 177 181 0
-16 -33 40 0
-17 -30 -40 -179 0
-17 -30 -40 -183 0
-17 -30 40 179 183 0
-17 -31 -40 -180 0
-17 -31 -40 -184 0
-17 -31 40 180 184 0
-17 -32 -40 -181 0
-17 -32 -40 -185 0
-17 -32 40 181 185 0
-17 -33 40 0
-18 -34 -41 -163 0
-18 -34 -41 -167 0
-18 -34 -41 -171 0
-18 -34 41 163 167 171 0
-18 -35 -41 -164 0
-18 -35 -41 -168 0
-18 -35 -41 -172 0
-18 -35 41 164 168 172 0
-18 -36 -41 -165 0
-18 -36 -41 -169 0
-18 -36 -41 -173 0
-18 -36 41 165 169 173 0
-18 -37 41 0
-19 -34 -41 -167 0
-19 -34 -41 -171 0
-19 -34 -41 -175 0
-19 -34 41 167 171 175 0
-19 -35 -41 -168 0
-19 -35 -41 -172 0
-19 -35 -41 -176 0
-19 -35 41 168 172 176 0
-19 -36 -41 -169 0
-19 -36 -41 -173 0
-19 -36 -41 -177 0
-19 -36 41 169 173 177 0
-19 -37 41 0
-20 -34 -41 -171 0
-20 -34 -41 -175 0
-20 -34 -41 -179 0
-20 -34 41 171 175 179 0
-20 -35 -41 -172 0
-20 -35 -41 -176 0
-20 -35 -41 -180 0
-20 -35 41 172 176 180 0
-20 -36 -41 -173 0
-20 -36 -41 -177 0
-20 -36 -41 -181 0
-20 -36 41 173 177 181 0
-20 -37 41 0
-21 -34 -41 -175 0
-21 -34 -41 -179 0
-21 -34 -41 -183 0
-21 -34 41 175 179 183 0
-21 -35 -41 -176 0
-21 -35 -41 -180 0
-21 -35 -41 -184 0
-21 -35 41 176 180 184 0
-21 -36 -41 -177 0
-21 -36 -41 -181 0
-21 -36 -41 -185 0
-21 -36 41 177 181 185 0
-21 -37 41 0
186 187 188 189 190 191 0
-186 -187 0
-186 -188 0
-186 -189 0
-186 -190 0
-186 -191 0
-187 -188 0
-187 -189 0
-187 -190 0
-187 -191 0
-188 -189 0
-188 -190 0
-188 -191 0
-189 -190 0
-189 -191 0
-190 -191 0
207 208 209 210 0
-207 -208 0
-207 -209 0
-207 -210 0
-208 -209 0
-208 -210 0
-209 -210 0
192 193 194 195 196 197 0
-192 -193 0
-192 -194 0
-192 -195 0
-192 -196 0
-192 -197 0
-193 -194 0
-193 -195 0
-193 -196 0
-193 -197 0
-194 -195 0
-194 -196 0
-194 -197 0
-195 -196 0
-195 -197 0
-196 -197 0
211 212 213 214 0
-211 -212 0
-211 -213 0
-211 -214 0
-212 -213 0
-212 -214 0
-213 -214 0
198 199 200 201 202 0
-198 -199 0
-198 -200 0
-198 -201 0
-198 -202 0
-199 -200 0
-199 -201 0
-199 -202 0
-200 -201 0
-200 -202 0
-201 -202 0
215 216 217 218 0
-215 -216 0
-215 -217 0
-215 -218 0
-216 -217 0
-216 -218 0
-217 -218 0
203 204 205 206 0
-203 -204 0
-203 -205 0
-203 -206 0
-204 -205 0
-204 -206 0
-205 -206 0
219 220 221 222 0
-219 -220 0
-219 -221 0
-219 -222 0
-220 -221 0
-220 -222 0
-221 -222 0
-227 186 0
-186 227 0
-251 227 0
-251 207 0
-227 -207 251 0
-252 227 0
-252 208 0
-227 -208 252 0
-253 227 0
-253 209 0
-227 -209 253 0
-254 227 0
-254 210 0
-227 -210 254 0
-228 187 0
-187 228 0
-255 228 0
-255 207 0
-228 -207 255 0
-256 228 0
-256 208 0
-228 -208 256 0
-257 228 0
-257 209 0
-228 -209 257 0
-258 228 0
-258 210 0
-228 -210 258 0
-229 188 0
-188 229 0
-259 229 0
-259 207 0
-229 -207 259 0
-260 229 0
-260 208 0
-229 -208 260 0
-261 229 0
-261 209 0
-229 -209 261 0
-262 229 0
-262 210 0
-229 -210 262 0
-230 189 0
-189 230 0
-263 230 0
-263 207 0
-230 -207 263 0
-264 230 0
-264 208 0
-230 -208 264 0
-265 230 0
-265 209 0
-230 -209 265 0
-266 230 0
-266 210 0
-230 -210 266 0
-231 190 0
-190 231 0
-267 231 0
-267 207 0
-231 -207 267 0
-268 231 0
-268 208 0
-231 -208 268 0
-269 231 0
-269 209 0
-231 -209 269 0
-270 231 0
-270 210 0
-231 -210 270 0
-232 191 0
-191 232 0
-271 232 0
-271 207 0
-232 -207 271 0
-272 232 0
-272 208 0
-232 -208 272 0
-273 232 0
-273 209 0
-232 -209 273 0
-274 232 0
-274 210 0
-232 -210 274 0
-233 192 0
-192 233 0
-275 233 0
-275 211 0
-233 -211 275 0
-276 233 0
-276 212 0
-233 -212 276 0
-277 233 0
-277 213 0
-233 -213 277 0
-278 233 0
-278 214 0
-233 -214 278 0
-234 193 0
-193 234 0
-279 234 0
-279 211 0
-234 -211 279 0
-280 234 0
-280 212 0
-234 -212 280 0
-281 234 0
-281 213 0
-234 -213 281 0
-282 234 0
-282 214 0
-234 -214 282 0
-235 194 0
-194 235 0
-283 235 0
-283 211 0
-235 -211 283 0
-284 235 0
-284 212 0
-235 -212 284 0
-285 235 0
-285 213 0
-235 -213 285 0
-286 235 0
-286 214 0
-235 -214 286 0
-236 195 0
-195 236 0
-287 236 0
-287 211 0
-236 -211 287 0
-288 236 0
-288 212 0
-236 -212 288 0
-289 236 0
-289 213 0
-236 -213 289 0
-290 236 0
-290 214 0
-236 -214 290 0
-237 196 0
-196 237 0
-291 237 0
-291 211 0
-237 -211 291 0
-292 237 0
-292 212 0
-237 -212 292 0
-293 237 0
-293 213 0
-237 -213 293 0
-294 237 0
-294 214 0
-237 -214 294 0
-238 197 0
-197 238 0
-295 238 0
-295 211 0
-238 -211 295 0
-296 238 0
-296 212 0
-238 -212 296 0
-297 238 0
-297 213 0
-238 -213 297 0
-298 238 0
-298 214 0
-238 -214 298 0
-239 198 0
-198 239 0
-299 239 0
-299 215 0
-239 -215 299 0
-300 239 0
-300 216 0
-239 -216 300 0
-301 239 0
-301 217 0
-239 -217 301 0
-302 239 0
-302 218 0
-239 -218 302 0
-240 198 199 0
-198 240 0
-199 240 0
-303 240 0
-303 215 0
-240 -215 303 0
-304 240 0
-304 216 0
-240 -216 304 0
-305 240 0
-305 217 0
-240 -217 305 0
-306 240 0
-306 218 0
-240 -218 306 0
-241 199 200 0
-199 241 0
-200 241 0
-307 241 0
-307 215 0
-241 -215 307 0
-308 241 0
-308 216 0
-241 -216 308 0
-309 241 0
-309 217 0
-241 -217 309 0
-310 241 0
-310 218 0
-241 -218 310 0
-242 200 201 0
-200 242 0
-201 242 0
-311 242 0
-311 215 0
-242 -215 311 0
-312 242 0
-312 216 0
-242 -216 312 0
-313 242 0
-313 217 0
-242 -217 313 0
-314 242 0
-314 218 0
-242 -218 314 0
-243 201 202 0
-201 243 0
-202 243 0
-315 243 0
-315 215 0
-243 -215 315 0
-316 243 0
-316 216 0
-243 -216 316 0
-317 243 0
-317 217 0
-243 -217 317 0
-318 243 0
-318 218 0
-243 -218 318 0
-244 202 0
-202 244 0
-319 244 0
-319 215 0
-244 -215 319 0
-320 244 0
-320 216 0
-244 -216 320 0
-321 244 0
-321 217 0
-244 -217 321 0
-322 244 0
-322 218 0
-244 -218 322 0
-245 203 0
-203 245 0
-323 245 0
-323 219 0
-245 -219 323 0
-324 245 0
-324 220 0
-245 -220 324 0
-325 245 0
-325 221 0
-245 -221 325 0
-326 245 0
-326 222 0
-245 -222 326 0
-246 203 204 0
-203 246 0
-204 246 0
-327 246 0
-327 219 0
-246 -219 327 0
-328 246 0
-328 220 0
-246 -220 328 0
-329 246 0
-329 221 0
-246 -221 329 0
-330 246 0
-330 222 0
-246 -222 330 0
-247 203 204 205 0
-203 247 0
-204 247 0
-205 247 0
-331 247 0
-331 219 0
-247 -219 331 0
-332 247 0
-332 220 0
-247 -220 332 0
-333 247 0
-333 221 0
-247 -221 333 0
-334 247 0
-334 222 0
-247 -222 334 0
-248 204 205 206 0
-204 248 0
-205 248 0
-206 248 0
-335 248 0
-335 219 0
-248 -219 335 0
-336 248 0
-336 220 0
-248 -220 336 0
-337 248 0
-337 221 0
-248 -221 337 0
-338 248 0
-338 222 0
-248 -222 338 0
-249 205 206 0
-205 249 0
-206 249 0
-339 249 0
-339 219 0
-249 -219 339 0
-340 249 0
-340 220 0
-249 -220 340 0
-341 249 0
-341 221 0
-249 -221 341 0
-342 249 0
-342 222 0
-249 -222 342 0
-250 206 0
-206 250 0
-343 250 0
-343 219 0
-250 -219 343 0
-344 250 0
-344 220 0
-250 -220 344 0
-345 250 0
-345 221 0
-250 -221 345 0
-346 250 0
-346 222 0
-250 -222 346 0
-347 251 275 299 323 0
-251 347 0
-275 347 0
-299 347 0
-323 347 0
-348 252 276 300 324 0
-252 348 0
-276 348 0
-300 348 0
-324 348 0
-349 253 277 301 325 0
-253 349 0
-277 349 0
-301 349 0
-325 349 0
-350 254 278 302 326 0
-254 350 0
-278 350 0
-302 350 0
-326 350 0
-351 255 279 303 327 0
-255 351 0
-279 351 0
-303 351 0
-327 351 0
-352 256 280 304 328 0
-256 352 0
-280 352 0
-304 352 0
-328 352 0
-353 257 281 305 329 0
-257 353 0
-281 353 0
-305 353 0
-329 353 0
-354 258 282 306 330 0
-258 354 0
-282 354 0
-306 354 0
-330 354 0
-355 259 283 307 331 0
-259 355 0
-283 355 0
-307 355 0
-331 355 0
-356 260 284 308 332 0
-260 356 0
-284 356 0
-308 356 0
-332 356 0
-357 261 285 309 333 0
-261 357 0
-285 357 0
-309 357 0
-333 357 0
-358 262 286 310 334 0
-262 358 0
-286 358 0
-310 358 0
-334 358 0
-359 263 287 311 335 0
-263 359 0
-287 359 0
-311 359 0
-335 359 0
-360 264 288 312 336 0
-264 360 0
-288 360 0
-312 360 0
-336 360 0
-361 265 289 313 337 0
-265 361 0
-289 361 0
-313 361 0
-337 361 0
-362 266 290 314 338 0
-266 362 0
-290 362 0
-314 362 0
-338 362 0
-363 267 291 315 339 0
-267 363 0
-291 363 0
-315 363 0
-339 363 0
-364 268 292 316 340 0
-268 364 0
-292 364 0
-316 364 0
-340 364 0
-365 269 293 317 341 0
-269 365 0
-293 365 0
-317 365 0
-341 365 0
-366 270 294 318 342 0
-270 366 0
-294 366 0
-318 366 0
-342 366 0
-367 271 295 319 343 0
-271 367 0
-295 367 0
-319 367 0
-343 367 0
-368 272 296 320 344 0
-272 368 0
-296 368 0
-320 368 0
-344 368 0
-369 273 297 321 345 0
-273 369 0
-297 369 0
-321 369 0
-345 369 0
-370 274 298 322 346 0
-274 370 0
-298 370 0
-322 370 0
-346 370 0
-251 -275 0
-251 -299 0
-251 -323 0
-275 -299 0
-275 -323 0
-299 -323 0
-252 -276 0
-252 -300 0
-252 -324 0
-276 -300 0
-276 -324 0
-300 -324 0
-253 -277 0
-253 -301 0
-253 -325 0
-277 -301 0
-277 -325 0
-301 -325 0
-254 -278 0
-254 -302 0
-254 -326 0
-278 -302 0
-278 -326 0
-302 -326 0
-255 -279 0
-255 -303 0
-255 -327 0
-279 -303 0
-279 -327 0
-303 -327 0
-256 -280 0
-256 -304 0
-256 -328 0
-280 -304 0
-280 -328 0
-304 -328 0
-257 -281 0
-257 -305 0
-257 -329 0
-281 -305 0
-281 -329 0
-305 -329 0
-258 -282 0
-258 -306 0
-258 -330 0
-282 -306 0
-282 -330 0
-306 -330 0
-259 -283 0
-259 -307 0
-259 -331 0
-283 -307 0
-283 -331 0
-307 -331 0
-260 -284 0
-260 -308 0
-260 -332 0
-284 -308 0
-284 -332 0
-308 -332 0
-261 -285 0
-261 -309 0
-261 -333 0
-285 -309 0
-285 -333 0
-309 -333 0
-262 -286 0
-262 -310 0
-262 -334 0
-286 -310 0
-286 -334 0
-310 -334 0
-263 -287 0
-263 -311 0
-263 -335 0
-287 -311 0
-287 -335 0
-311 -335 0
-264 -288 0
-264 -312 0
-264 -336 0
-288 -312 0
-288 -336 0
-312 -336 0
-265 -289 0
-265 -313 0
-265 -337 0
-289 -313 0
-289 -337 0
-313 -337 0
-266 -290 0
-266 -314 0
-266 -338 0
-290 -314 0
-290 -338 0
-314 -338 0
-267 -291 0
-267 -315 0
-267 -339 0
-291 -315 0
-291 -339 0
-315 -339 0
-268 -292 0
-268 -316 0
-268 -340 0
-292 -316 0
-292 -340 0
-316 -340 0
-269 -293 0
-269 -317 0
-269 -341 0
-293 -317 0
-293 -341 0
-317 -341 0
-270 -294 0
-270 -318 0
-270 -342 0
-294 -318 0
-294 -342 0
-318 -342 0
-271 -295 0
-271 -319 0
-271 -343 0
-295 -319 0
-295 -343 0
-319 -343 0
-272 -296 0
-272 -320 0
-272 -344 0
-296 -320 0
-296 -344 0
-320 -344 0
-273 -297 0
-273 -321 0
-273 -345 0
-297 -321 0
-297 -345 0
-321 -345 0
-274 -298 0
-274 -322 0
-274 -346 0
-298 -322 0
-298 -346 0
-322 -346 0
-186 -208 347 0
-186 -209 348 0
-186 -210 349 0
-187 -208 351 0
-187 -209 352 0
-187 -210 353 0
-188 -208 355 0
-188 -209 356 0
-188 -210 357 0
-189 -208 359 0
-189 -209 360 0
-189 -210 361 0
-190 -208 363 0
-190 -209 364 0
-190 -210 365 0
-191 -208 367 0
-191 -209 368 0
-191 -210 369 0
-192 -212 347 0
-192 -213 348 0
-192 -214 349 0
-193 -212 351 0
-193 -213 352 0
-193 -214 353 0
-194 -212 355 0
-194 -213 356 0
-194 -214 357 0
-195 -212 359 0
-195 -213 360 0
-195 -214 361 0
-196 -212 363 0
-196 -213 364 0
-196 -214 365 0
-197 -212 367 0
-197 -213 368 0
-197 -214 369 0
-198 -216 347 351 0
-198 -217 348 352 0
-198 -218 349 353 0
-199 -216 351 355 0
-199 -217 352 356 0
-199 -218 353 357 0
-200 -216 355 359 0
-200 -217 356 360 0
-200 -218 357 361 0
-201 -216 359 363 0
-201 -217 360 364 0
-201 -218 361 365 0
-202 -216 363 367 0
-202 -217 364 368 0
-202 -218 365 369 0
-203 -220 347 351 0
-203 -220 347 355 0
-203 -220 351 355 0
-203 -221 348 352 0
-203 -221 348 356 0
-203 -221 352 356 0
-203 -222 349 353 0
-203 -222 349 357 0
-203 -222 353 357 0
-204 -220 351 355 0
-204 -220 351 359 0
-204 -220 355 359 0
-204 -221 352 356 0
-204 -221 352 360 0
-204 -221 356 360 0
-204 -222 353 357 0
-204 -222 353 361 0
-204 -222 357 361 0
-205 -220 355 359 0
-205 -220 355 363 0
-205 -220 359 363 0
-205 -221 356 360 0
-205 -221 356 364 0
-205 -221 360 364 0
-205 -222 357 361 0
-205 -222 357 365 0
-205 -222 361 365 0
-206 -220 359 363 0
-206 -220 359 367 0
-206 -220 363 367 0
-206 -221 360 364 0
-206 -221 360 368 0
-206 -221 364 368 0
-206 -222 361 365 0
-206 -222 361 369 0
-206 -222 365 369 0
-186 -207 -223 -348 0
-186 -207 223 348 0
-186 -208 -223 -349 0
-186 -208 223 349 0
-186 -209 -223 -350 0
-186 -209 223 350 0
-186 -210 223 0
-187 -207 -223 -352 0
-187 -207 223 352 0
-187 -208 -223 -353 0
-187 -208 223 353 0
-187 -209 -223 -354 0
-187 -209 223 354 0
-187 -210 223 0
-188 -207 -223 -356 0
-188 -207 223 356 0
-188 -208 -223 -357 0
-188 -208 223 357 0
-188 -209 -223 -358 0
-188 -209 223 358 0
-188 -210 223 0
-189 -207 -223 -360 0
-189 -207 223 360 0
-189 -208 -223 -361 0
-189 -208 223 361 0
-189 -209 -223 -362 0
-189 -209 223 362 0
-189 -210 223 0
-190 -207 -223 -364 0
-190 -207 223 364 0
-190 -208 -223 -365 0
-190 -208 223 365 0
-190 -209 -223 -366 0
-190 -209 223 366 0
-190 -210 223 0
-191 -207 -223 -368 0
-191 -207 223 368 0
-191 -208 -223 -369 0
-191 -208 223 369 0
-191 -209 -223 -370 0
-191 -209 223 370 0
-191 -210 223 0
-192 -211 -224 -348 0
-192 -211 224 348 0
-192 -212 -224 -349 0
-192 -212 224 349 0
-192 -213 -224 -350 0
-192 -213 224 350 0
-192 -214 224 0
-193 -211 -224 -352 0
-193 -211 224 352 0
-193 -212 -224 -353 0
-193 -212 224 353 0
-193 -213 -224 -354 0
-193 -213 224 354 0
-193 -214 224 0
-194 -211 -224 -356 0
-194 -211 224 356 0
-194 -212 -224 -357 0
-194 -212 224 357 0
-194 -213 -224 -358 0
-194 -213 224 358 0
-194 -214 224 0
-195 -211 -224 -360 0
-195 -211 224 360 0
-195 -212 -224 -361 0
-195 -212 224 361 0
-195 -213 -224 -362 0
-195 -213 224 362 0
-195 -214 224 0
-196 -211 -224 -364 0
-196 -211 224 364 0
-196 -212 -224 -365 0
-196 -212 224 365 0
-196 -213 -224 -366 0
-196 -213 224 366 0
-196 -214 224 0
-197 -211 -224 -368 0
-197 -211 224 368 0
-197 -212 -224 -369 0
-197 -212 224 369 0
-197 -213 -224 -370 0
-197 -213 224 370 0
-197 -214 224 0
-198 -215 -225 -348 0
-198 -215 -225 -352 0
-198 -215 225 348 352 0
-198 -216 -225 -349 0
-198 -216 -225 -353 0
-198 -216 225 349 353 0
-198 -217 -225 -350 0
-198 -217 -225 -354 0
-198 -217 225 350 354 0
-198 -218 225 0
-199 -215 -225 -352 0
-199 -215 -225 -356 0
-199 -215 225 352 356 0
-199 -216 -225 -353 0
-199 -216 -225 -357 0
-199 -216 225 353 357 0
-199 -217 -225 -354 0
-199 -217 -225 -358 0
-199 -217 225 354 358 0
-199 -218 225 0
-200 -215 -225 -356 0
-200 -215 -225 -360 0
-200 -215 225 356 360 0
-200 -216 -225 -357 0
-200 -216 -225 -361 0
-200 -216 225 357 361 0
-200 -217 -225 -358 0
-200 -217 -225 -362 0
-200 -217 225 358 362 0
-200 -218 225 0
-201 -215 -225 -360 0
-201 -215 -225 -364 0
-201 -215 225 360 364 0
-201 -216 -225 -361 0
-201 -216 -225 -365 0
-201 -216 225 361 365 0
-201 -217 -225 -362 0
-201 -217 -225 -366 0
-201 -217 225 362 366 0
-201 -218 225 0
-202 -215 -225 -364 0
-202 -215 -225 -368 0
-202 -215 225 364 368 0
-202 -216 -225 -365 0
-202 -216 -225 -369 0
-202 -216 225 365 369 0
-202 -217 -225 -366 0
-202 -217 -225 -370 0
-202 -217 225 366 370 0
-202 -218 225 0
-203 -219 -226 -348 0
-203 -219 -226 -352 0
-203 -219 -226 -356 0
-203 -219 226 348 352 356 0
-203 -220 -226 -349 0
-203 -220 -226 -353 0
-203 -220 -226 -357 0
-203 -220 226 349 353 357 0
-203 -221 -226 -350 0
-203 -221 -226 -354 0
-203 -221 -226 -358 0
-203 -221 226 350 354 358 0
-203 -222 226 0
-204 -219 -226 -352 0
-204 -219 -226 -356 0
-204 -219 -226 -360 0
-204 -219 226 352 356 360 0
-204 -220 -226 -353 0
-204 -220 -226 -357 0
-204 -220 -226 -361 0
-204 -220 226 353 357 361 0
-204 -221 -226 -354 0
-204 -221 -226 -358 0
-204 -221 -226 -362 0
-204 -221 226 354 358 362 0
-204 -222 226 0
-205 -219 -226 -356 0
-205 -219 -226 -360 0
-205 -219 -226 -364 0
-205 -219 226 356 360 364 0
-205 -220 -226 -357 0
-205 -220 -226 -361 0
-205 -220 -226 -365 0
-205 -220 226 357 361 365 0
-205 -221 -226 -358 0
-205 -221 -226 -362 0
-205 -221 -226 -366 0
-205 -221 226 358 362 366 0
-205 -222 226 0
-206 -219 -226 -360 0
-206 -219 -226 -364 0
-206 -219 -226 -368 0
-206 -219 226 360 364 368 0
-206 -220 -226 -361 0
-206 -220 -226 -365 0
-206 -220 -226 -369 0
-206 -220 226 361 365 369 0
-206 -221 -226 -362 0
-206 -221 -226 -366 0
-206 -221 -226 -370 0
-206 -221 226 362 366 370 0
-206 -222 226 0
371 372 373 374 375 376 0
-371 -372 0
-371 -373 0
-371 -374 0
-371 -375 0
-371 -376 0
-372 -373 0
-372 -374 0
-372 -375 0
-372 -376 0
-373 -374 0
-373 -375 0
-373 -376 0
-374 -375 0
-374 -376 0
-375 -376 0
392 393 394 395 0
-392 -393 0
-392 -394 0
-392 -395 0
-393 -394 0
-393 -395 0
-394 -395 0
377 378 379 380 381 382 0
-377 -378 0
-377 -379 0
-377 -380 0
-377 -381 0
-377 -382 0
-378 -379 0
-378 -380 0
-378 -381 0
-378 -382 0
-379 -380 0
-379 -381 0
-379 -382 0
-380 -381 0
-380 -382 0
-381 -382 0
396 397 398 399 0
-396 -397 0
-396 -398 0
-396 -399 0
-397 -398 0
-397 -399 0
-398 -399 0
383 384 385 386 387 0
-383 -384 0
-383 -385 0
-383 -386 0
-383 -387 0
-384 -385 0
-384 -386 0
-384 -387 0
-385 -386 0
-385 -387 0
-386 -387 0
400 401 402 403 0
-400 -401 0
-400 -402 0
-400 -403 0
-401 -402 0
-401 -403 0
-402 -403 0
388 389 390 391 0
-388 -389 0
-388 -390 0
-388 -391 0
-389 -390 0
-389 -391 0
-390 -391 0
404 405 406 407 0
-404 -405 0
-404 -406 0
-404 -407 0
-405 -406 0
-405 -407 0
-406 -407 0
-412 371 0
-371 412 0
-436 412 0
-436 392 0
-412 -392 436 0
-437 412 0
-437 393 0
-412 -393 437 0
-438 412 0
-438 394 0
-412 -394 438 0
-439 412 0
-439 395 0
-412 -395 439 0
-413 372 0
-372 413 0
-440 413 0
-440 392 0
-413 -392 440 0
-441 413 0
-441 393 0
-413 -393 441 0
-442 413 0
-442 394 0
-413 -394 442 0
-443 413 0
-443 395 0
-413 -395 443 0
-414 373 0
-373 414 0
-444 414 0
-444 392 0
-414 -392 444 0
-445 414 0
-445 393 0
-414 -393 445 0
-446 414 0
-446 394 0
-414 -394 446 0
-447 414 0
-447 395 0
-414 -395 447 0
-415 374 0
-374 415 0
-448 415 0
-448 392 0
-415 -392 448 0
-449 415 0
-449 393 0
-415 -393 449 0
-450 415 0
-450 394 0
-415 -394 450 0
-451 415 0
-451 395 0
-415 -395 451 0
-416 375 0
-375 416 0
-452 416 0
-452 392 0
-416 -392 452 0
-453 416 0
-453 393 0
-416 -393 453 0
-454 416 0
-454 394 0
-416 -394 454 0
-455 416 0
-455 395 0
-416 -395 455 0
-417 376 0
-376 417 0
-456 417 0
-456 392 0
-417 -392 456 0
-457 417 0
-457 393 0
-417 -393 457 0
-458 417 0
-458 394 0
-417 -394 458 0
-459 417 0
-459 395 0
-417 -395 459 0
-418 377 0
-377 418 0
-460 418 0
-460 396 0
-418 -396 460 0
-461 418 0
-461 397 0
-418 -397 461 0
-462 418 0
-462 398 0
-418 -398 462 0
-463 418 0
-463 399 0
-418 -399 463 0
-419 378 0
-378 419 0
-464 419 0
-464 396 0
-419 -396 464 0
-465 419 0
-465 397 0
-419 -397 465 0
-466 419 0
-466 398 0
-419 -398 466 0
-467 419 0
-467 399 0
-419 -399 467 0
-420 379 0
-379 420 0
-468 420 0
-468 396 0
-420 -396 468 0
-469 420 0
-469 397 0
-420 -397 469 0
-470 420 0
-470 398 0
-420 -398 470 0
-471 420 0
-471 399 0
-420 -399 471 0
-421 380 0
-380 421 0
-472 421 0
-472 396 0
-421 -396 472 0
-473 421 0
-473 397 0
-421 -397 473 0
-474 421 0
-474 398 0
-421 -398 474 0
-475 421 0
-475 399 0
-421 -399 475 0
-422 381 0
-381 422 0
-476 422 0
-476 396 0
-422 -396 476 0
-477 422 0
-477 397 0
-422 -397 477 0
-478 422 0
-478 398 0
-422 -398 478 0
-479 422 0
-479 399 0
-422 -399 479 0
-423 382 0
-382 423 0
-480 423 0
-480 396 0
-423 -396 480 0
-481 423 0
-481 397 0
-423 -397 481 0
-482 423 0
-482 398 0
-423 -398 482 0
-483 423 0
-483 399 0
-423 -399 483 0
-424 383 0
-383 424 0
-484 424 0
-484 400 0
-424 -400 484 0
-485 424 0
-485 401 0
-424 -401 485 0
-486 424 0
-486 402 0
-424 -402 486 0
-487 424 0
-487 403 0
-424 -403 487 0
-425 383 384 0
-383 425 0
-384 425 0
-488 425 0
-488 400 0
-425 -400 488 0
-489 425 0
-489 401 0
-425 -401 489 0
-490 425 0
-490 402 0
-425 -402 490 0
-491 425 0
-491 403 0
-425 -403 491 0
-426 384 385 0
-384 426 0
-385 426 0
-492 426 0
-492 400 0
-426 -400 492 0
-493 426 0
-493 401 0
-426 -401 493 0
-494 426 0
-494 402 0
-426 -402 494 0
-495 426 0
-495 403 0
-426 -403 495 0
-427 385 386 0
-385 427 0
-386 427 0
-496 427 0
-496 400 0
-427 -400 496 0
-497 427 0
-497 401 0
-427 -401 497 0
-498 427 0
-498 402 0
-427 -402 498 0
-499 427 0
-499 403 0
-427 -403 499 0
-428 386 387 0
-386 428 0
-387 428 0
-500 428 0
-500 400 0
-428 -400 500 0
-501 428 0
-501 401 0
-428 -401 501 0
-502 428 0
-502 402 0
-428 -402 502 0
-503 428 0
-503 403 0
-428 -403 503 0
-429 387 0
-387 429 0
-504 429 0
-504 400 0
-429 -400 504 0
-505 429 0
-505 401 0
-429 -401 505 0
-506 429 0
-506 402 0
-429 -402 506 0
-507 429 0
-507 403 0
-429 -403 507 0
-430 388 0
-388 430 0
-508 430 0
-508 404 0
-430 -404 508 0
-509 430 0
-509 405 0
-430 -405 509 0
-510 430 0
-510 406 0
-430 -406 510 0
-511 430 0
-511 407 0
-430 -407 511 0
-431 388 389 0
-388 431 0
-389 431 0
-512 431 0
-512 404 0
-431 -404 512 0
-513 431 0
-513 405 0
-431 -405 513 0
-514 431 0
-514 406 0
-431 -406 514 0
-515 431 0
-515 407 0
-431 -407 515 0
-432 388 389 390 0
-388 432 0
-389 432 0
-390 432 0
-516 432 0
-516 404 0
-432 -404 516 0
-517 432 0
-517 405 0
-432 -405 517 0
-518 432 0
-518 406 0
-432 -406 518 0
-519 432 0
-519 407 0
-432 -407 519 0
-433 389 390 391 0
-389 433 0
-390 433 0
-391 433 0
-520 433 0
-520 404 0
-433 -404 520 0
-521 433 0
-521 405 0
-433 -405 521 0
-522 433 0
-522 406 0
-433 -406 522 0
-523 433 0
-523 407 0
-433 -407 523 0
-434 390 391 0
-390 434 0
-391 434 0
-524 434 0
-524 404 0
-434 -404 524 0
-525 434 0
-525 405 0
-434 -405 525 0
-526 434 0
-526 406 0
-434 -406 526 0
-527 434 0
-527 407 0
-434 -407 527 0
-435 391 0
-391 435 0
-528 435 0
-528 404 0
-435 -404 528 0
-529 435 0
-529 405 0
-435 -405 529 0
-530 435 0
-530 406 0
-435 -406 530 0
-531 435 0
-531 407 0
-435 -407 531 0
-532 436 460 484 508 0
-436 532 0
-460 532 0
-484 532 0
-508 532 0
-533 437 461 485 509 0
-437 533 0
-461 533 0
-485 533 0
-509 533 0
-534 438 462 486 510 0
-438 534 0
-462 534 0
-486 534 0
-510 534 0
-535 439 463 487 511 0
-439 535 0
-463 535 0
-487 535 0
-511 535 0
-536 440 464 488 512 0
-440 536 0
-464 536 0
-488 536 0
-512 536 0
-537 441 465 489 513 0
-441 537 0
-465 537 0
-489 537 0
-513 537 0
-538 442 466 490 514 0
-442 538 0
-466 538 0
-490 538 0
-514 538 0
-539 443 467 491 515 0
-443 539 0
-467 539 0
-491 539 0
-515 539 0
-540 444 468 492 516 0
-444 540 0
-468 540 0
-492 540 0
-516 540 0
-541 445 469 493 517 0
-445 541 0
-469 541 0
-493 541 0
-517 541 0
-542 446 470 494 518 0
-446 542 0
-470 542 0
-494 542 0
-518 542 0
-543 447 471 495 519 0
-447 543 0
-471 543 0
-495 543 0
-519 543 0
-544 448 472 496 520 0
-448 544 0
-472 544 0
-496 544 0
-520 544 0
-545 449 473 497 521 0
-449 545 0
-473 545 0
-497 545 0
-521 545 0
-546 450 474 498 522 0
-450 546 0
-474 546 0
-498 546 0
-522 546 0
-547 451 475 499 523 0
-451 547 0
-475 547 0
-499 547 0
-523 547 0
-548 452 476 500 524 0
-452 548 0
-476 548 0
-500 548 0
-524 548 0
-549 453 477 501 525 0
-453 549 0
-477 549 0
-501 549 0
-525 549 0
-550 454 478 502 526 0
-454 550 0
-478 550 0
-502 550 0
-526 550 0
-551 455 479 503 527 0
-455 551 0
-479 551 0
-503 551 0
-527 551 0
-552 456 480 504 528 0
-456 552 0
-480 552 0
-504 552 0
-528 552 0
-553 457 481 505 529 0
-457 553 0
-481 553 0
-505 553 0
-529 553 0
-554 458 482 506 530 0
-458 554 0
-482 554 0
-506 554 0
-530 554 0
-555 459 483 507 531 0
-459 555 0
-483 555 0
-507 555 0
-531 555 0
-436 -460 0
-436 -484 0
-436 -508 0
-460 -484 0
-460 -508 0
-484 -508 0
-437 -461 0
-437 -485 0
-437 -509 0
-461 -485 0
-461 -509 0
-485 -509 0
-438 -462 0
-438 -486 0
-438 -510 0
-462 -486 0
-462 -510 0
-486 -510 0
-439 -463 0
-439 -487 0
-439 -511 0
-463 -487 0
-463 -511 0
-487 -511 0
-440 -464 0
-440 -488 0
-440 -512 0
-464 -488 0
-464 -512 0
-488 -512 0
-441 -465 0
-441 -489 0
-441 -513 0
-465 -489 0
-465 -513 0
-489 -513 0
-442 -466 0
-442 -490 0
-442 -514 0
-466 -490 0
-466 -514 0
-490 -514 0
-443 -467 0
-443 -491 0
-443 -515 0
-467 -491 0
-467 -515 0
-491 -515 0
-444 -468 0
-444 -492 0
-444 -516 0
-468 -492 0
-468 -516 0
-492 -516 0
-445 -469 0
-445 -493 0
-445 -517 0
-469 -493 0
-469 -517 0
-493 -517 0
-446 -470 0
-446 -494 0
-446 -518 0
-470 -494 0
-470 -518 0
-494 -518 0
-447 -471 0
-447 -495 0
-447 -519 0
-471 -495 0
-471 -519 0
-495 -519 0
-448 -472 0
-448 -496 0
-448 -520 0
-472 -496 0
-472 -520 0
-496 -520 0
-449 -473 0
-449 -497 0
-449 -521 0
-473 -497 0
-473 -521 0
-497 -521 0
-450 -474 0
-450 -498 0
-450 -522 0
-474 -498 0
-474 -522 0
-498 -522 0
-451 -475 0
-451 -499 0
-451 -523 0
-475 -499 0
-475 -523 0
-499 -523 0
-452 -476 0
-452 -500 0
-452 -524 0
-476 -500 0
-476 -524 0
-500 -524 0
-453 -477 0
-453 -501 0
-453 -525 0
-477 -501 0
-477 -525 0
-501 -525 0
-454 -478 0
-454 -502 0
-454 -526 0
-478 -502 0
-478 -526 0
-502 -526 0
-455 -479 0
-455 -503 0
-455 -527 0
-479 -503 0
-479 -527 0
-503 -527 0
-456 -480 0
-456 -504 0
-456 -528 0
-480 -504 0
-480 -528 0
-504 -528 0
-457 -481 0
-457 -505 0
-457 -529 0
-481 -505 0
-481 -529 0
-505 -529 0
-458 -482 0
-458 -506 0
-458 -530 0
-482 -506 0
-482 -530 0
-506 -530 0
-459 -483 0
-459 -507 0
-459 -531 0
-483 -507 0
-483 -531 0
-507 -531 0
-371 -393 532 0
-371 -394 533 0
-371 -395 534 0
-372 -393 536 0
-372 -394 537 0
-372 -395 538 0
-373 -393 540 0
-373 -394 541 0
-373 -395 542 0
-374 -393 544 0
-374 -394 545 0
-374 -395 546 0
-375 -393 548 0
-375 -394 549 0
-375 -395 550 0
-376 -393 552 0
-376 -394 553 0
-376 -395 554 0
-377 -397 532 0
-377 -398 533 0
-377 -399 534 0
-378 -397 536 0
-378 -398 537 0
-378 -399 538 0
-379 -397 540 0
-379 -398 541 0
-379 -399 542 0
-380 -397 544 0
-380 -398 545 0
-380 -399 546 0
-381 -397 548 0
-381 -398 549 0
-381 -399 550 0
-382 -397 552 0
-382 -398 553 0
-382 -399 554 0
-383 -401 532 536 0
-383 -402 533 537 0
-383 -403 534 538 0
-384 -401 536 540 0
-384 -402 537 541 0
-384 -403 538 542 0
-385 -401 540 544 0
-385 -402 541 545 0
-385 -403 542 546 0
-386 -401 544 548 0
-386 -402 545 549 0
-386 -403 546 550 0
-387 -401 548 552 0
-387 -402 549 553 0
-387 -403 550 554 0
-388 -405 532 536 0
-388 -405 532 540 0
-388 -405 536 540 0
-388 -406 533 537 0
-388 -406 533 541 0
-388 -406 537 541 0
-388 -407 534 538 0
-388 -407 534 542 0
-388 -407 538 542 0
-389 -405 536 540 0
-389 -405 536 544 0
-389 -405 540 544 0
-389 -406 537 541 0
-389 -406 537 545 0
-389 -406 541 545 0
-389 -407 538 542 0
-389 -407 538 546 0
-389 -407 542 546 0
-390 -405 540 544 0
-390 -405 540 548 0
-390 -405 544 548 0
-390 -406 541 545 0
-390 -406 541 549 0
-390 -406 545 549 0
-390 -407 542 546 0
-390 -407 542 550 0
-390 -407 546 550 0
-391 -405 544 548 0
-391 -405 544 552 0
-391 -405 548 552 0
-391 -406 545 549 0
-391 -406 545 553 0
-391 -406 549 553 0
-391 -407 546 550 0
-391 -407 546 554 0
-391 -407 550 554 0
-371 -392 -408 -533 0
-371 -392 408 533 0
-371 -393 -408 -534 0
-371 -393 408 534 0
-371 -394 -408 -535 0
-371 -394 408 535 0
-371 -395 408 0
-372 -392 -408 -537 0
-372 -392 408 537 0
-372 -393 -408 -538 0
-372 -393 408 538 0
-372 -394 -408 -539 0
-372 -394 408 539 0
-372 -395 408 0
-373 -392 -408 -541 0
-373 -392 408 541 0
-373 -393 -408 -542 0
-373 -393 408 542 0
-373 -394 -408 -543 0
-373 -394 408 543 0
-373 -395 408 0
-374 -392 -408 -545 0
-374 -392 408 545 0
-374 -393 -408 -546 0
-374 -393 408 546 0
-374 -394 -408 -547 0
-374 -394 408 547 0
-374 -395 408 0
-375 -392 -408 -549 0
-375 -392 408 549 0
-375 -393 -408 -550 0
-375 -393 408 550 0
-375 -394 -408 -551 0
-375 -394 408 551 0
-375 -395 408 0
-376 -392 -408 -553 0
-376 -392 408 553 0
-376 -393 -408 -554 0
-376 -393 408 554 0
-376 -394 -408 -555 0
-376 -394 408 555 0
-376 -395 408 0
-377 -396 -409 -533 0
-377 -396 409 533 0
-377 -397 -409 -534 0
-377 -397 409 534 0
-377 -398 -409 -535 0
-377 -398 409 535 0
-377 -399 409 0
-378 -396 -409 -537 0
-378 -396 409 537 0
-378 -397 -409 -538 0
-378 -397 409 538 0
-378 -398 -409 -539 0
-378 -398 409 539 0
-378 -399 409 0
-379 -396 -409 -541 0
-379 -396 409 541 0
-379 -397 -409 -542 0
-379 -397 409 542 0
-379 -398 -409 -543 0
-379 -398 409 543 0
-379 -399 409 0
-380 -396 -409 -545 0
-380 -396 409 545 0
-380 -397 -409 -546 0
-380 -397 409 546 0
-380 -398 -409 -547 0
-380 -398 409 547 0
-380 -399 409 0
-381 -396 -409 -549 0
-381 -396 409 549 0
-381 -397 -409 -550 0
-381 -397 409 550 0
-381 -398 -409 -551 0
-381 -398 409 551 0
-381 -399 409 0
-382 -396 -409 -553 0
-382 -396 409 553 0
-382 -397 -409 -554 0
-382 -397 409 554 0
-382 -398 -409 -555 0
-382 -398 409 555 0
-382 -399 409 0
-383 -400 -410 -533 0
-383 -400 -410 -537 0
-383 -400 410 533 537 0
-383 -401 -410 -534 0
-383 -401 -410 -538 0
-383 -401 410 534 538 0
-383 -402 -410 -535 0
-383 -402 -410 -539 0
-383 -402 410 535 539 0
-383 -403 410 0
-384 -400 -410 -537 0
-384 -400 -410 -541 0
-384 -400 410 537 541 0
-384 -401 -410 -538 0
-384 -401 -410 -542 0
-384 -401 410 538 542 0
-384 -402 -410 -539 0
-384 -402 -410 -543 0
-384 -402 410 539 543 0
-384 -403 410 0
-385 -400 -410 -541 0
-385 -400 -410 -545 0
-385 -400 410 541 545 0
-385 -401 -410 -542 0
-385 -401 -410 -546 0
-385 -401 410 542 546 0
-385 -402 -410 -543 0
-385 -402 -410 -547 0
-385 -402 410 543 547 0
-385 -403 410 0
-386 -400 -410 -545 0
-386 -400 -410 -549 0
-386 -400 410 545 549 0
-386 -401 -410 -546 0
-386 -401 -410 -550 0
-386 -401 410 546 550 0
-386 -402 -410 -547 0
-386 -402 -410 -551 0
-386 -402 410 547 551 0
-386 -403 410 0
-387 -400 -410 -549 0
-387 -400 -410 -553 0
-387 -400 410 549 553 0
-387 -401 -410 -550 0
-387 -401 -410 -554 0
-387 -401 410 550 554 0
-387 -402 -410 -551 0
-387 -402 -410 -555 0
-387 -402 410 551 555 0
-387 -403 410 0
-388 -404 -411 -533 0
-388 -404 -411 -537 0
-388 -404 -411 -541 0
-388 -404 411 533 537 541 0
-388 -405 -411 -534 0
-388 -405 -411 -538 0
-388 -405 -411 -542 0
-388 -405 411 534 538 542 0
-388 -406 -411 -535 0
-388 -406 -411 -539 0
-388 -406 -411 -543 0
-388 -406 411 535 539 543 0
-388 -407 411 0
-389 -404 -411 -537 0
-389 -404 -411 -541 0
-389 -404 -411 -545 0
-389 -404 411 537 541 545 0
-389 -405 -411 -538 0
-389 -405 -411 -542 0
-389 -405 -411 -546 0
-389 -405 411 538 542 546 0
-389 -406 -411 -539 0
-389 -406 -411 -543 0
-389 -406 -411 -547 0
-389 -406 411 539 543 547 0
-389 -407 411 0
-390 -404 -411 -541 0
-390 -404 -411 -545 0
-390 -404 -411 -549 0
-390 -404 411 541 545 549 0
-390 -405 -411 -542 0
-390 -405 -411 -546 0
-390 -405 -411 -550 0
-390 -405 411 542 546 550 0
-390 -406 -411 -543 0
-390 -406 -411 -547 0
-390 -406 -411 -551 0
-390 -406 411 543 547 551 0
-390 -407 411 0
-391 -404 -411 -545 0
-391 -404 -411 -549 0
-391 -404 -411 -553 0
-391 -404 411 545 549 553 0
-391 -405 -411 -546 0
-391 -405 -411 -550 0
-391 -405 -411 -554 0
-391 -405 411 546 550 554 0
-391 -406 -411 -547 0
-391 -406 -411 -551 0
-391 -406 -411 -555 0
-391 -406 411 547 551 555 0
-391 -407 411 0
556 557 558 559 560 561 0
-556 -557 0
-556 -558 0
-556 -559 0
-556 -560 0
-556 -561 0
-557 -558 0
-557 -559 0
-557 -560 0
-557 -561 0
-558 -559 0
-558 -560 0
-558 -561 0
-559 -560 0
-559 -561 0
-560 -561 0
577 578 579 580 0
-577 -578 0
-577 -579 0
-577 -580 0
-578 -579 0
-578 -580 0
-579 -580 0
562 563 564 565 566 567 0
-562 -563 0
-562 -564 0
-562 -565 0
-562 -566 0
-562 -567 0
-563 -564 0
-563 -565 0
-563 -566 0
-563 -567 0
-564 -565 0
-564 -566 0
-564 -567 0
-565 -566 0
-565 -567 0
-566 -567 0
581 582 583 584 0
-581 -582 0
-581 -583 0
-581 -584 0
-582 -583 0
-582 -584 0
-583 -584 0
568 569 570 571 572 0
-568 -569 0
-568 -570 0
-568 -571 0
-568 -572 0
-569 -570 0
-569 -571 0
-569 -572 0
-570 -571 0
-570 -572 0
-571 -572 0
585 586 587 588 0
-585 -586 0
-585 -587 0
-585 -588 0
-586 -587 0
-586 -588 0
-587 -588 0
573 574 575 576 0
-573 -574 0
-573 -575 0
-573 -576 0
-574 -575 0
-574 -576 0
-575 -576 0
589 590 591 592 0
-589 -590 0
-589 -591 0
-589 -592 0
-590 -591 0
-590 -592 0
-591 -592 0
-597 556 0
-556 597 0
-621 597 0
-621 577 0
-597 -577 621 0
-622 597 0
-622 578 0
-597 -578 622 0
-623 597 0
-623 579 0
-597 -579 623 0
-624 597 0
-624 580 0
-597 -580 624 0
-598 557 0
-557 598 0
-625 598 0
-625 577 0
-598 -577 625 0
-626 598 0
-626 578 0
-598 -578 626 0
-627 598 0
-627 579 0
-598 -579 627 0
-628 598 0
-628 580 0
-598 -580 628 0
-599 558 0
-558 599 0
-629 599 0
-629 577 0
-599 -577 629 0
-630 599 0
-630 578 0
-599 -578 630 0
-631 599 0
-631 579 0
-599 -579 631 0
-632 599 0
-632 580 0
-599 -580 632 0
-600 559 0
-559 600 0
-633 600 0
-633 577 0
-600 -577 633 0
-634 600 0
-634 578 0
-600 -578 634 0
-635 600 0
-635 579 0
-600 -579 635 0
-636 600 0
-636 580 0
-600 -580 636 0
-601 560 0
-560 601 0
-637 601 0
-637 577 0
-601 -577 637 0
-638 601 0
-638 578 0
-601 -578 638 0
-639 601 0
-639 579 0
-601 -579 639 0
-640 601 0
-640 580 0
-601 -580 640 0
-602 561 0
-561 602 0
-641 602 0
-641 577 0
-602 -577 641 0
-642 602 0
-642 578 0
-602 -578 642 0
-643 602 0
-643 579 0
-602 -579 643 0
-644 602 0
-644 580 0
-602 -580 644 0
-603 562 0
-562 603 0
-645 603 0
-645 581 0
-603 -581 645 0
-646 603 0
-646 582 0
-603 -582 646 0
-647 603 0
-647 583 0
-603 -583 647 0
-648 603 0
-648 584 0
-603 -584 648 0
-604 563 0
-563 604 0
-649 604 0
-649 581 0
-604 -581 649 0
-650 604 0
-650 582 0
-604 -582 650 0
-651 604 0
-651 583 0
-604 -583 651 0
-652 604 0
-652 584 0
-604 -584 652 0
-605 564 0
-564 605 0
-653 605 0
-653 581 0
-605 -581 653 0
-654 605 0
-654 582 0
-605 -582 654 0
-655 605 0
-655 583 0
-605 -583 655 0
-656 605 0
-656 584 0
-605 -584 656 0
-606 565 0
-565 606 0
-657 606 0
-657 581 0
-606 -581 657 0
-658 606 0
-658 582 0
-606 -582 658 0
-659 606 0
-659 583 0
-606 -583 659 0
-660 606 0
-660 584 0
-606 -584 660 0
-607 566 0
-566 607 0
-661 607 0
-661 581 0
-607 -581 661 0
-662 607 0
-662 582 0
-607 -582 662 0
-663 607 0
-663 583 0
-607 -583 663 0
-664 607 0
-664 584 0
-607 -584 664 0
-608 567 0
-567 608 0
-665 608 0
-665 581 0
-608 -581 665 0
-666 608 0
-666 582 0
-608 -582 666 0
-667 608 0
-667 583 0
-608 -583 667 0
-668 608 0
-668 584 0
-608 -584 668 0
-609 568 0
-568 609 0
-669 609 0
-669 585 0
-609 -585 669 0
-670 609 0
-670 586 0
-609 -586 670 0
-671 609 0
-671 587 0
-609 -587 671 0
-672 609 0
-672 588 0
-609 -588 672 0
-610 568 569 0
-568 610 0
-569 610 0
-673 610 0
-673 585 0
-610 -585 673 0
-674 610 0
-674 586 0
-610 -586 674 0
-675 610 0
-675 587 0
-610 -587 675 0
-676 610 0
-676 588 0
-610 -588 676 0
-611 569 570 0
-569 611 0
-570 611 0
-677 611 0
-677 585 0
-611 -585 677 0
-678 611 0
-678 586 0
-611 -586 678 0
-679 611 0
-679 587 0
-611 -587 679 0
-680 611 0
-680 588 0
-611 -588 680 0
-612 570 571 0
-570 612 0
-571 612 0
-681 612 0
-681 585 0
-612 -585 681 0
-682 612 0
-682 586 0
-612 -586 682 0
-683 612 0
-683 587 0
-612 -587 683 0
-684 612 0
-684 588 0
-612 -588 684 0
-613 571 572 0
-571 613 0
-572 613 0
-685 613 0
-685 585 0
-613 -585 685 0
-686 613 0
-686 586 0
-613 -586 686 0
-687 613 0
-687 587 0
-613 -587 687 0
-688 613 0
-688 588 0
-613 -588 688 0
-614 572 0
-572 614 0
-689 614 0
-689 585 0
-614 -585 689 0
-690 614 0
-690 586 0
-614 -586 690 0
-691 614 0
-691 587 0
-614 -587 691 0
-692 614 0
-692 588 0
-614 -588 692 0
-615 573 0
-573 615 0
-693 615 0
-693 589 0
-615 -589 693 0
-694 615 0
-694 590 0
-615 -590 694 0
-695 615 0
-695 591 0
-615 -591 695 0
-696 615 0
-696 592 0
-615 -592 696 0
-616 573 574 0
-573 616 0
-574 616 0
-697 616 0
-697 589 0
-616 -589 697 0
-698 616 0
-698 590 0
-616 -590 698 0
-699 616 0
-699 591 0
-616 -591 699 0
-700 616 0
-700 592 0
-616 -592 700 0
-617 573 574 575 0
-573 617 0
-574 617 0
-575 617 0
-701 617 0
-701 589 0
-617 -589 701 0
-702 617 0
-702 590 0
-617 -590 702 0
-703 617 0
-703 591 0
-617 -591 703 0
-704 617 0
-704 592 0
-617 -592 704 0
-618 574 575 576 0
-574 618 0
-575 618 0
-576 618 0
-705 618 0
-705 589 0
-618 -589 705 0
-706 618 0
-706 590 0
-618 -590 706 0
-707 618 0
-707 591 0
-618 -591 707 0
-708 618 0
-708 592 0
-618 -592 708 0
-619 575 576 0
-575 619 0
-576 619 0
-709 619 0
-709 589 0
-619 -589 709 0
-710 619 0
-710 590 0
-619 -590 710 0
-711 619 0
-711 591 0
-619 -591 711 0
-712 619 0
-712 592 0
-619 -592 712 0
-620 576 0
-576 620 0
-713 620 0
-713 589 0
-620 -589 713 0
-714 620 0
-714 590 0
-620 -590 714 0
-715 620 0
-715 591 0
-620 -591 715 0
-716 620 0
-716 592 0
-620 -592 716 0
-717 621 645 669 693 0
-621 717 0
-645 717 0
-669 717 0
-693 717 0
-718 622 646 670 694 0
-622 718 0
-646 718 0
-670 718 0
-694 718 0
-719 623 647 671 695 0
-623 719 0
-647 719 0
-671 719 0
-695 719 0
-720 624 648 672 696 0
-624 720 0
-648 720 0
-672 720 0
-696 720 0
-721 625 649 673 697 0
-625 721 0
-649 721 0
-673 721 0
-697 721 0
-722 626 650 674 698 0
-626 722 0
-650 722 0
-674 722 0
-698 722 0
-723 627 651 675 699 0
-627 723 0
-651 723 0
-675 723 0
-699 723 0
-724 628 652 676 700 0
-628 724 0
-652 724 0
-676 724 0
-700 724 0
-725 629 653 677 701 0
-629 725 0
-653 725 0
-677 725 0
-701 725 0
-726 630 654 678 702 0
-630 726 0
-654 726 0
-678 726 0
-702 726 0
-727 631 655 679 703 0
-631 727 0
-655 727 0
-679 727 0
-703 727 0
-728 632 656 680 704 0
-632 728 0
-656 728 0
-680 728 0
-704 728 0
-729 633 657 681 705 0
-633 729 0
-657 729 0
-681 729 0
-705 729 0
-730 634 658 682 706 0
-634 730 0
-658 730 0
-682 730 0
-706 730 0
-731 635 659 683 707 0
-635 731 0
-659 731 0
-683 731 0
-707 731 0
-732 636 660 684 708 0
-636 732 0
-660 732 0
-684 732 0
-708 732 0
-733 637 661 685 709 0
-637 733 0
-661 733 0
-685 733 0
-709 733 0
-734 638 662 686 710 0
-638 734 0
-662 734 0
-686 734 0
-710 734 0
-735 639 663 687 711 0
-639 735 0
-663 735 0
-687 735 0
-711 735 0
-736 640 664 688 712 0
-640 736 0
-664 736 0
-688 736 0
-712 736 0
-737 641 665 689 713 0
-641 737 0
-665 737 0
-689 737 0
-713 737 0
-738 642 666 690 714 0
-642 738 0
-666 738 0
-690 738 0
-714 738 0
-739 643 667 691 715 0
-643 739 0
-667 739 0
-691 739 0
-715 739 0
-740 644 668 692 716 0
-644 740 0
-668 740 0
-692 740 0
-716 740 0
-621 -645 0
-621 -669 0
-621 -693 0
-645 -669 0
-645 -693 0
-669 -693 0
-622 -646 0
-622 -670 0
-622 -694 0
-646 -670 0
-646 -694 0
-670 -694 0
-623 -647 0
-623 -671 0
-623 -695 0
-647 -671 0
-647 -695 0
-671 -695 0
-624 -648 0
-624 -672 0
-624 -696 0
-648 -672 0
-648 -696 0
-672 -696 0
-625 -649 0
-625 -673 0
-625 -697 0
-649 -673 0
-649 -697 0
-673 -697 0
-626 -650 0
-626 -674 0
-626 -698 0
-650 -674 0
-650 -698 0
-674 -698 0
-627 -651 0
-627 -675 0
-627 -699 0
-651 -675 0
-651 -699 0
-675 -699 0
-628 -652 0
-628 -676 0
-628 -700 0
-652 -676 0
-652 -700 0
-676 -700 0
-629 -653 0
-629 -677 0
-629 -701 0
-653 -677 0
-653 -701 0
-677 -701 0
-630 -654 0
-630 -678 0
-630 -702 0
-654 -678 0
-654 -702 0
-678 -702 0
-631 -655 0
-631 -679 0
-631 -703 0
-655 -679 0
-655 -703 0
-679 -703 0
-632 -656 0
-632 -680 0
-632 -704 0
-656 -680 0
-656 -704 0
-680 -704 0
-633 -657 0
-633 -681 0
-633 -705 0
-657 -681 0
-657 -705 0
-681 -705 0
-634 -658 0
-634 -682 0
-634 -706 0
-658 -682 0
-658 -706 0
-682 -706 0
-635 -659 0
-635 -683 0
-635 -707 0
-659 -683 0
-659 -707 0
-683 -707 0
-636 -660 0
-636 -684 0
-636 -708 0
-660 -684 0
-660 -708 0
-684 -708 0
-637 -661 0
-637 -685 0
-637 -709 0
-661 -685 0
-661 -709 0
-685 -709 0
-638 -662 0
-638 -686 0
-638 -710 0
-662 -686 0
-662 -710 0
-686 -710 0
-639 -663 0
-639 -687 0
-639 -711 0
-663 -687 0
-663 -711 0
-687 -711 0
-640 -664 0
-640 -688 0
-640 -712 0
-664 -688 0
-664 -712 0
-688 -712 0
-641 -665 0
-641 -689 0
-641 -713 0
-665 -689 0
-665 -713 0
-689 -713 0
-642 -666 0
-642 -690 0
-642 -714 0
-666 -690 0
-666 -714 0
-690 -714 0
-643 -667 0
-643 -691 0
-643 -715 0
-667 -691 0
-667 -715 0
-691 -715 0
-644 -668 0
-644 -692 0
-644 -716 0
-668 -692 0
-668 -716 0
-692 -716 0
-556 -578 717 0
-556 -579 718 0
-556 -580 719 0
-557 -578 721 0
-557 -579 722 0
-557 -580 723 0
-558 -578 725 0
-558 -579 726 0
-558 -580 727 0
-559 -578 729 0
-559 -579 730 0
-559 -580 731 0
-560 -578 733 0
-560 -579 734 0
-560 -580 735 0
-561 -578 737 0
-561 -579 738 0
-561 -580 739 0
-562 -582 717 0
-562 -583 718 0
-562 -584 719 0
-563 -582 721 0
-563 -583 722 0
-563 -584 723 0
-564 -582 725 0
-564 -583 726 0
-564 -584 727 0
-565 -582 729 0
-565 -583 730 0
-565 -584 731 0
-566 -582 733 0
-566 -583 734 0
-566 -584 735 0
-567 -582 737 0
-567 -583 738 0
-567 -584 739 0
-568 -586 717 721 0
-568 -587 718 722 0
-568 -588 719 723 0
-569 -586 721 725 0
-569 -587 722 726 0
-569 -588 723 727 0
-570 -586 725 729 0
-570 -587 726 730 0
-570 -588 727 731 0
-571 -586 729 733 0
-571 -587 730 734 0
-571 -588 731 735 0
-572 -586 733 737 0
-572 -587 734 738 0
-572 -588 735 739 0
-573 -590 717 721 0
-573 -590 717 725 0
-573 -590 721 725 0
-573 -591 718 722 0
-573 -591 718 726 0
-573 -591 722 726 0
-573 -592 719 723 0
-573 -592 719 727 0
-573 -592 723 727 0
-574 -590 721 725 0
-574 -590 721 729 0
-574 -590 725 729 0
-574 -591 722 726 0
-574 -591 722 730 0
-574 -591 726 730 0
-574 -592 723 727 0
-574 -592 723 731 0
-574 -592 727 731 0
-575 -590 725 729 0
-575 -590 725 733 0
-575 -590 729 733 0
-575 -591 726 730 0
-575 -591 726 734 0
-575 -591 730 734 0
-575 -592 727 731 0
-575 -592 727 735 0
-575 -592 731 735 0
-576 -590 729 733 0
-576 -590 729 737 0
-576 -590 733 737 0
-576 -591 730 734 0
-576 -591 730 738 0
-576 -591 734 738 0
-576 -592 731 735 0
-576 -592 731 739 0
-576 -592 735 739 0
-556 -577 -593 -718 0
-556 -577 593 718 0
-556 -578 -593 -719 0
-556 -578 593 719 0
-556 -579 -593 -720 0
-556 -579 593 720 0
-556 -580 593 0
-557 -577 -593 -722 0
-557 -577 593 722 0
-557 -578 -593 -723 0
-557 -578 593 723 0
-557 -579 -593 -724 0
-557 -579 593 724 0
-557 -580 593 0
-558 -577 -593 -726 0
-558 -577 593 726 0
-558 -578 -593 -727 0
-558 -578 593 727 0
-558 -579 -593 -728 0
-558 -579 593 728 0
-558 -580 593 0
-559 -577 -593 -730 0
-559 -577 593 730 0
-559 -578 -593 -731 0
-559 -578 593 731 0
-559 -579 -593 -732 0
-559 -579 593 732 0
-559 -580 593 0
-560 -577 -593 -734 0
-560 -577 593 734 0
-560 -578 -593 -735 0
-560 -578 593 735 0
-560 -579 -593 -736 0
-560 -579 593 736 0
-560 -580 593 0
-561 -577 -593 -738 0
-561 -577 593 738 0
-561 -578 -593 -739 0
-561 -578 593 739 0
-561 -579 -593 -740 0
-561 -579 593 740 0
-561 -580 593 0
-562 -581 -594 -718 0
-562 -581 594 718 0
-562 -582 -594 -719 0
-562 -582 594 719 0
-562 -583 -594 -720 0
-562 -583 594 720 0
-562 -584 594 0
-563 -581 -594 -722 0
-563 -581 594 722 0
-563 -582 -594 -723 0
-563 -582 594 723 0
-563 -583 -594 -724 0
-563 -583 594 724 0
-563 -584 594 0
-564 -581 -594 -726 0
-564 -581 594 726 0
-564 -582 -594 -727 0
-564 -582 594 727 0
-564 -583 -594 -728 0
-564 -583 594 728 0
-564 -584 594 0
-565 -581 -594 -730 0
-565 -581 594 730 0
-565 -582 -594 -731 0
-565 -582 594 731 0
-565 -583 -594 -732 0
-565 -583 594 732 0
-565 -584 594 0
-566 -581 -594 -734 0
-566 -581 594 734 0
-566 -582 -594 -735 0
-566 -582 594 735 0
-566 -583 -594 -736 0
-566 -583 594 736 0
-566 -584 594 0
-567 -581 -594 -738 0
-567 -581 594 738 0
-567 -582 -594 -739 0
-567 -582 594 739 0
-567 -583 -594 -740 0
-567 -583 594 740 0
-567 -584 594 0
-568 -585 -595 -718 0
-568 -585 -595 -722 0
-568 -585 595 718 722 0
-568 -586 -595 -719 0
-568 -586 -595 -723 0
-568 -586 595 719 723 0
-568 -587 -595 -720 0
-568 -587 -595 -724 0
-568 -587 595 720 724 0
-568 -588 595 0
-569 -585 -595 -722 0
-569 -585 -595 -726 0
-569 -585 595 722 726 0
-569 -586 -595 -723 0
-569 -586 -595 -727 0
-569 -586 595 723 727 0
-569 -587 -595 -724 0
-569 -587 -595 -728 0
-569 -587 595 724 728 0
-569 -588 595 0
-570 -585 -595 -726 0
-570 -585 -595 -730 0
-570 -585 595 726 730 0
-570 -586 -595 -727 0
-570 -586 -595 -731 0
-570 -586 595 727 731 0
-570 -587 -595 -728 0
-570 -587 -595 -732 0
-570 -587 595 728 732 0
-570 -588 595 0
-571 -585 -595 -730 0
-571 -585 -595 -734 0
-571 -585 595 730 734 0
-571 -586 -595 -731 0
-571 -586 -595 -735 0
-571 -586 595 731 735 0
-571 -587 -595 -732 0
-571 -587 -595 -736 0
-571 -587 595 732 736 0
-571 -588 595 0
-572 -585 -595 -734 0
-572 -585 -595 -738 0
-572 -585 595 734 738 0
-572 -586 -595 -735 0
-572 -586 -595 -739 0
-572 -586 595 735 739 0
-572 -587 -595 -736 0
-572 -587 -595 -740 0
-572 -587 595 736 740 0
-572 -588 595 0
-573 -589 -596 -718 0
-573 -589 -596 -722 0
-573 -589 -596 -726 0
-573 -589 596 718 722 726 0
-573 -590 -596 -719 0
-573 -590 -596 -723 0
-573 -590 -596 -727 0
-573 -590 596 719 723 727 0
-573 -591 -596 -720 0
-573 -591 -596 -724 0
-573 -591 -596 -728 0
-573 -591 596 720 724 728 0
-573 -592 596 0
-574 -589 -596 -722 0
-574 -589 -596 -726 0
-574 -589 -596 -730 0
-574 -589 596 722 726 730 0
-574 -590 -596 -723 0
-574 -590 -596 -727 0
-574 -590 -596 -731 0
-574 -590 596 723 727 731 0
-574 -591 -596 -724 0
-574 -591 -596 -728 0
-574 -591 -596 -732 0
-574 -591 596 724 728 732 0
-574 -592 596 0
-575 -589 -596 -726 0
-575 -589 -596 -730 0
-575 -589 -596 -734 0
-575 -589 596 726 730 734 0
-575 -590 -596 -727 0
-575 -590 -596 -731 0
-575 -590 -596 -735 0
-575 -590 596 727 731 735 0
-575 -591 -596 -728 0
-575 -591 -596 -732 0
-575 -591 -596 -736 0
-575 -591 596 728 732 736 0
-575 -592 596 0
-576 -589 -596 -730 0
-576 -589 -596 -734 0
-576 -589 -596 -738 0
-576 -589 596 730 734 738 0
-576 -590 -596 -731 0
-576 -590 -596 -735 0
-576 -590 -596 -739 0
-576 -590 596 731 735 739 0
-576 -591 -596 -732 0
-576 -591 -596 -736 0
-576 -591 -596 -740 0
-576 -591 596 732 736 740 0
-576 -592 596 0
741 742 743 744 745 746 0
-741 -742 0
-741 -743 0
-741 -744 0
-741 -745 0
-741 -746 0
-742 -743 0
-742 -744 0
-742 -745 0
-742 -746 0
-743 -744 0
-743 -745 0
-743 -746 0
-744 -745 0
-744 -746 0
-745 -746 0
762 763 764 765 0
-762 -763 0
-762 -764 0
-762 -765 0
-763 -764 0
-763 -765 0
-764 -765 0
747 748 749 750 751 752 0
-747 -748 0
-747 -749 0
-747 -750 0
-747 -751 0
-747 -752 0
-748 -749 0
-748 -750 0
-748 -751 0
-748 -752 0
-749 -750 0
-749 -751 0
-749 -752 0
-750 -751 0
-750 -752 0
-751 -752 0
766 767 768 769 0
-766 -767 0
-766 -768 0
-766 -769 0
-767 -768 0
-767 -769 0
-768 -769 0
753 754 755 756 757 0
-753 -754 0
-753 -755 0
-753 -756 0
-753 -757 0
-754 -755 0
-754 -756 0
-754 -757 0
-755 -756 0
-755 -757 0
-756 -757 0
770 771 772 773 0
-770 -771 0
-770 -772 0
-770 -773 0
-771 -772 0
-771 -773 0
-772 -773 0
758 759 760 761 0
-758 -759 0
-758 -760 0
-758 -761 0
-759 -760 0
-759 -761 0
-760 -761 0
774 775 776 777 0
-774 -775 0
-774 -776 0
-774 -777 0
-775 -776 0
-775 -777 0
-776 -777 0
-782 741 0
-741 782 0
-806 782 0
-806 762 0
-782 -762 806 0
-807 782 0
-807 763 0
-782 -763 807 0
-808 782 0
-808 764 0
-782 -764 808 0
-809 782 0
-809 765 0
-782 -765 809 0
-783 742 0
-742 783 0
-810 783 0
-810 762 0
-783 -762 810 0
-811 783 0
-811 763 0
-783 -763 811 0
-812 783 0
-812 764 0
-783 -764 812 0
-813 783 0
-813 765 0
-783 -765 813 0
-784 743 0
-743 784 0
-814 784 0
-814 762 0
-784 -762 814 0
-815 784 0
-815 763 0
-784 -763 815 0
-816 784 0
-816 764 0
-784 -764 816 0
-817 784 0
-817 765 0
-784 -765 817 0
-785 744 0
-744 785 0
-818 785 0
-818 762 0
-785 -762 818 0
-819 785 0
-819 763 0
-785 -763 819 0
-820 785 0
-820 764 0
-785 -764 820 0
-821 785 0
-821 765 0
-785 -765 821 0
-786 745 0
-745 786 0
-822 786 0
-822 762 0
-786 -762 822 0
-823 786 0
-823 763 0
-786 -763 823 0
-824 786 0
-824 764 0
-786 -764 824 0
-825 786 0
-825 765 0
-786 -765 825 0
-787 746 0
-746 787 0
-826 787 0
-826 762 0
-787 -762 826 0
-827 787 0
-827 763 0
-787 -763 827 0
-828 787 0
-828 764 0
-787 -764 828 0
-829 787 0
-829 765 0
-787 -765 829 0
-788 747 0
-747 788 0
-830 788 0
-830 766 0
-788 -766 830 0
-831 788 0
-831 767 0
-788 -767 831 0
-832 788 0
-832 768 0
-788 -768 832 0
-833 788 0
-833 769 0
-788 -769 833 0
-789 748 0
-748 789 0
-834 789 0
-834 766 0
-789 -766 834 0
-835 789 0
-835 767 0
-789 -767 835 0
-836 789 0
-836 768 0
-789 -768 836 0
-837 789 0
-837 769 0
-789 -769 837 0
-790 749 0
-749 790 0
-838 790 0
-838 766 0
-790 -766 838 0
-839 790 0
-839 767 0
-790 -767 839 0
-840 790 0
-840 768 0
-790 -768 840 0
-841 790 0
-841 769 0
-790 -769 841 0
-791 750 0
-750 791 0
-842 791 0
-842 766 0
-791 -766 842 0
-843 791 0
-843 767 0
-791 -767 843 0
-844 791 0
-844 768 0
-791 -768 844 0
-845 791 0
-845 769 0
-791 -769 845 0
-792 751 0
-751 792 0
-846 792 0
-846 766 0
-792 -766 846 0
-847 792 0
-847 767 0
-792 -767 847 0
-848 792 0
-848 768 0
-792 -768 848 0
-849 792 0
-849 769 0
-792 -769 849 0
-793 752 0
-752 793 0
-850 793 0
-850 766 0
-793 -766 850 0
-851 793 0
-851 767 0
-793 -767 851 0
-852 793 0
-852 768 0
-793 -768 852 0
-853 793 0
-853 769 0
-793 -769 853 0
-794 753 0
-753 794 0
-854 794 0
-854 770 0
-794 -770 854 0
-855 794 0
-855 771 0
-794 -771 855 0
-856 794 0
-856 772 0
-794 -772 856 0
-857 794 0
-857 773 0
-794 -773 857 0
-795 753 754 0
-753 795 0
-754 795 0
-858 795 0
-858 770 0
-795 -770 858 0
-859 795 0
-859 771 0
-795 -771 859 0
-860 795 0
-860 772 0
-795 -772 860 0
-861 795 0
-861 773 0
-795 -773 861 0
-796 754 755 0
-754 796 0
-755 796 0
-862 796 0
-862 770 0
-796 -770 862 0
-863 796 0
-863 771 0
-796 -771 863 0
-864 796 0
-864 772 0
-796 -772 864 0
-865 796 0
-865 773 0
-796 -773 865 0
-797 755 756 0
-755 797 0
-756 797 0
-866 797 0
-866 770 0
-797 -770 866 0
-867 797 0
-867 771 0
-797 -771 867 0
-868 797 0
-868 772 0
-797 -772 868 0
-869 797 0
-869 773 0
-797 -773 869 0
-798 756 757 0
-756 798 0
-757 798 0
-870 798 0
-870 770 0
-798 -770 870 0
-871 798 0
-871 771 0
-798 -771 871 0
-872 798 0
-872 772 0
-798 -772 872 0
-873 798 0
-873 773 0
-798 -773 873 0
-799 757 0
-757 799 0
-874 799 0
-874 770 0
-799 -770 874 0
-875 799 0
-875 771 0
-799 -771 875 0
-876 799 0
-876 772 0
-799 -772 876 0
-877 799 0
-877 773 0
-799 -773 877 0
-800 758 0
-758 800 0
-878 800 0
-878 774 0
-800 -774 878 0
-879 800 0
-879 775 0
-800 -775 879 0
-880 800 0
-880 776 0
-800 -776 880 0
-881 800 0
-881 777 0
-800 -777 881 0
-801 758 759 0
-758 801 0
-759 801 0
-882 801 0
-882 774 0
-801 -774 882 0
-883 801 0
-883 775 0
-801 -775 883 0
-884 801 0
-884 776 0
-801 -776 884 0
-885 801 0
-885 777 0
-801 -777 885 0
-802 758 759 760 0
-758 802 0
-759 802 0
-760 802 0
-886 802 0
-886 774 0
-802 -774 886 0
-887 802 0
-887 775 0
-802 -775 887 0
-888 802 0
-888 776 0
-802 -776 888 0
-889 802 0
-889 777 0
-802 -777 889 0
-803 759 760 761 0
-759 803 0
-760 803 0
-761 803 0
-890 803 0
-890 774 0
-803 -774 890 0
-891 803 0
-891 775 0
-803 -775 891 0
-892 803 0
-892 776 0
-803 -776 892 0
-893 803 0
-893 777 0
-803 -777 893 0
-804 760 761 0
-760 804 0
-761 804 0
-894 804 0
-894 774 0
-804 -774 894 0
-895 804 0
-895 775 0
-804 -775 895 0
-896 804 0
-896 776 0
-804 -776 896 0
-897 804 0
-897 777 0
-804 -777 897 0
-805 761 0
-761 805 0
-898 805 0
-898 774 0
-805 -774 898 0
-899 805 0
-899 775 0
-805 -775 899 0
-900 805 0
-900 776 0
-805 -776 900 0
-901 805 0
-901 777 0
-805 -777 901 0
-902 806 830 854 878 0
-806 902 0
-830 902 0
-854 902 0
-878 902 0
-903 807 831 855 879 0
-807 903 0
-831 903 0
-855 903 0
-879 903 0
-904 808 832 856 880 0
-808 904 0
-832 904 0
-856 904 0
-880 904 0
-905 809 833 857 881 0
-809 905 0
-833 905 0
-857 905 0
-881 905 0
-906 810 834 858 882 0
-810 906 0
-834 906 0
-858 906 0
-882 906 0
-907 811 835 859 883 0
-811 907 0
-835 907 0
-859 907 0
-883 907 0
-908 812 836 860 884 0
-812 908 0
-836 908 0
-860 908 0
-884 908 0
-909 813 837 861 885 0
-813 909 0
-837 909 0
-861 909 0
-885 909 0
-910 814 838 862 886 0
-814 910 0
-838 910 0
-862 910 0
-886 910 0
-911 815 839 863 887 0
-815 911 0
-839 911 0
-863 911 0
-887 911 0
-912 816 840 864 888 0
-816 912 0
-840 912 0
-864 912 0
-888 912 0
-913 817 841 865 889 0
-817 913 0
-841 913 0
-865 913 0
-889 913 0
-914 818 842 866 890 0
-818 914 0
-842 914 0
-866 914 0
-890 914 0
-915 819 843 867 891 0
-819 915 0
-843 915 0
-867 915 0
-891 915 0
-916 820 844 868 892 0
-820 916 0
-844 916 0
-868 916 0
-892 916 0
-917 821 845 869 893 0
-821 917 0
-845 917 0
-869 917 0
-893 917 0
-918 822 846 870 894 0
-822 918 0
-846 918 0
-870 918 0
-894 918 0
-919 823 847 871 895 0
-823 919 0
-847 919 0
-871 919 0
-895 919 0
-920 824 848 872 896 0
-824 920 0
-848 920 0
-872 920 0
-896 920 0
-921 825 849 873 897 0
-825 921 0
-849 921 0
-873 921 0
-897 921 0
-922 826 850 874 898 0
-826 922 0
-850 922 0
-874 922 0
-898 922 0
-923 827 851 875 899 0
-827 923 0
-851 923 0
-875 923 0
-899 923 0
-924 828 852 876 900 0
-828 924 0
-852 924 0
-876 924 0
-900 924 0
-925 829 853 877 901 0
-829 925 0
-853 925 0
-877 925 0
-901 925 0
-806 -830 0
-806 -854 0
-806 -878 0
-830 -854 0
-830 -878 0
-854 -878 0
-807 -831 0
-807 -855 0
-807 -879 0
-831 -855 0
-831 -879 0
-855 -879 0
-808 -832 0
-808 -856 0
-808 -880 0
-832 -856 0
-832 -880 0
-856 -880 0
-809 -833 0
-809 -857 0
-809 -881 0
-833 -857 0
-833 -881 0
-857 -881 0
-810 -834 0
-810 -858 0
-810 -882 0
-834 -858 0
-834 -882 0
-858 -882 0
-811 -835 0
-811 -859 0
-811 -883 0
-835 -859 0
-835 -883 0
-859 -883 0
-812 -836 0
-812 -860 0
-812 -884 0
-836 -860 0
-836 -884 0
-860 -884 0
-813 -837 0
-813 -861 0
-813 -885 0
-837 -861 0
-837 -885 0
-861 -885 0
-814 -838 0
-814 -862 0
-814 -886 0
-838 -862 0
-838 -886 0
-862 -886 0
-815 -839 0
-815 -863 0
-815 -887 0
-839 -863 0
-839 -887 0
-863 -887 0
-816 -840 0
-816 -864 0
-816 -888 0
-840 -864 0
-840 -888 0
-864 -888 0
-817 -841 0
-817 -865 0
-817 -889 0
-841 -865 0
-841 -889 0
-865 -889 0
-818 -842 0
-818 -866 0
-818 -890 0
-842 -866 0
-842 -890 0
-866 -890 0
-819 -843 0
-819 -867 0
-819 -891 0
-843 -867 0
-843 -891 0
-867 -891 0
-820 -844 0
-820 -868 0
-820 -892 0
-844 -868 0
-844 -892 0
-868 -892 0
-821 -845 0
-821 -869 0
-821 -893 0
-845 -869 0
-845 -893 0
-869 -893 0
-822 -846 0
-822 -870 0
-822 -894 0
-846 -870 0
-846 -894 0
-870 -894 0
-823 -847 0
-823 -871 0
-823 -895 0
-847 -871 0
-847 -895 0
-871 -895 0
-824 -848 0
-824 -872 0
-824 -896 0
-848 -872 0
-848 -896 0
-872 -896 0
-825 -849 0
-825 -873 0
-825 -897 0
-849 -873 0
-849 -897 0
-873 -897 0
-826 -850 0
-826 -874 0
-826 -898 0
-850 -874 0
-850 -898 0
-874 -898 0
-827 -851 0
-827 -875 0
-827 -899 0
-851 -875 0
-851 -899 0
-875 -899 0
-828 -852 0
-828 -876 0
-828 -900 0
-852 -876 0
-852 -900 0
-876 -900 0
-829 -853 0
-829 -877 0
-829 -901 0
-853 -877 0
-853 -901 0
-877 -901 0
-741 -763 902 0
-741 -764 903 0
-741 -765 904 0
-742 -763 906 0
-742 -764 907 0
-742 -765 908 0
-743 -763 910 0
-743 -764 911 0
-743 -765 912 0
-744 -763 914 0
-744 -764 915 0
-744 -765 916 0
-745 -763 918 0
-745 -764 919 0
-745 -765 920 0
-746 -763 922 0
-746 -764 923 0
-746 -765 924 0
-747 -767 902 0
-747 -768 903 0
-747 -769 904 0
-748 -767 906 0
-748 -768 907 0
-748 -769 908 0
-749 -767 910 0
-749 -768 911 0
-749 -769 912 0
-750 -767 914 0
-750 -768 915 0
-750 -769 916 0
-751 -767 918 0
-751 -768 919 0
-751 -769 920 0
-752 -767 922 0
-752 -768 923 0
-752 -769 924 0
-753 -771 902 906 0
-753 -772 903 907 0
-753 -773 904 908 0
-754 -771 906 910 0
-754 -772 907 911 0
-754 -773 908 912 0
-755 -771 910 914 0
-755 -772 911 915 0
-755 -773 912 916 0
-756 -771 914 918 0
-756 -772 915 919 0
-756 -773 916 920 0
-757 -771 918 922 0
-757 -772 919 923 0
-757 -773 920 924 0
-758 -775 902 906 0
-758 -775 902 910 0
-758 -775 906 910 0
-758 -776 903 907 0
-758 -776 903 911 0
-758 -776 907 911 0
-758 -777 904 908 0
-758 -777 904 912 0
-758 -777 908 912 0
-759 -775 906 910 0
-759 -775 906 914 0
-759 -775 910 914 0
-759 -776 907 911 0
-759 -776 907 915 0
-759 -776 911 915 0
-759 -777 908 912 0
-759 -777 908 916 0
-759 -777 912 916 0
-760 -775 910 914 0
-760 -775 910 918 0
-760 -775 914 918 0
-760 -776 911 915 0
-760 -776 911 919 0
-760 -776 915 919 0
-760 -777 912 916 0
-760 -777 912 920 0
-760 -777 916 920 0
-761 -775 914 918 0
-761 -775 914 922 0
-761 -775 918 922 0
-761 -776 915 919 0
-761 -776 915 923 0
-761 -776 919 923 0
-761 -777 916 920 0
-761 -777 916 924 0
-761 -777 920 924 0
-741 -762 -778 -903 0
-741 -762 778 903 0
-741 -763 -778 -904 0
-741 -763 778 904 0
-741 -764 -778 -905 0
-741 -764 778 905 0
-741 -765 778 0
-742 -762 -778 -907 0
-742 -762 778 907 0
-742 -763 -778 -908 0
-742 -763 778 908 0
-742 -764 -778 -909 0
-742 -764 778 909 0
-742 -765 778 0
-743 -762 -778 -911 0
-743 -762 778 911 0
-743 -763 -778 -912 0
-743 -763 778 912 0
-743 -764 -778 -913 0
-743 -764 778 913 0
-743 -765 778 0
-744 -762 -778 -915 0
-744 -762 778 915 0
-744 -763 -778 -916 0
-744 -763 778 916 0
-744 -764 -778 -917 0
-744 -764 778 917 0
-744 -765 778 0
-745 -762 -778 -919 0
-745 -762 778 919 0
-745 -763 -778 -920 0
-745 -763 778 920 0
-745 -764 -778 -921 0
-745 -764 778 921 0
-745 -765 778 0
-746 -762 -778 -923 0
-746 -762 778 923 0
-746 -763 -778 -924 0
-746 -763 778 924 0
-746 -764 -778 -925 0
-746 -764 778 925 0
-746 -765 778 0
-747 -766 -779 -903 0
-747 -766 779 903 0
-747 -767 -779 -904 0
-747 -767 779 904 0
-747 -768 -779 -905 0
-747 -768 779 905 0
-747 -769 779 0
-748 -766 -779 -907 0
-748 -766 779 907 0
-748 -767 -779 -908 0
-748 -767 779 908 0
-748 -768 -779 -909 0
-748 -768 779 909 0
-748 -769 779 0
-749 -766 -779 -911 0
-749 -766 779 911 0
-749 -767 -779 -912 0
-749 -767 779 912 0
-749 -768 -779 -913 0
-749 -768 779 913 0
-749 -769 779 0
-750 -766 -779 -915 0
-750 -766 779 915 0
-750 -767 -779 -916 0
-750 -767 779 916 0
-750 -768 -779 -917 0
-750 -768 779 917 0
-750 -769 779 0
-751 -766 -779 -919 0
-751 -766 779 919 0
-751 -767 -779 -920 0
-751 -767 779 920 0
-751 -768 -779 -921 0
-751 -768 779 921 0
-751 -769 779 0
-752 -766 -779 -923 0
-752 -766 779 923 0
-752 -767 -779 -924 0
-752 -767 779 924 0
-752 -768 -779 -925 0
-752 -768 779 925 0
-752 -769 779 0
-753 -770 -780 -903 0
-753 -770 -780 -907 0
-753 -770 780 903 907 0
-753 -771 -780 -904 0
-753 -771 -780 -908 0
-753 -771 780 904 908 0
-753 -772 -780 -905 0
-753 -772 -780 -909 0
-753 -772 780 905 909 0
-753 -773 780 0
-754 -770 -780 -907 0
-754 -770 -780 -911 0
-754 -770 780 907 911 0
-754 -771 -780 -908 0
-754 -771 -780 -912 0
-754 -771 780 908 912 0
-754 -772 -780 -909 0
-754 -772 -780 -913 0
-754 -772 780 909 913 0
-754 -773 780 0
-755 -770 -780 -911 0
-755 -770 -780 -915 0
-755 -770 780 911 915 0
-755 -771 -780 -912 0
-755 -771 -780 -916 0
-755 -771 780 912 916 0
-755 -772 -780 -913 0
-755 -772 -780 -917 0
-755 -772 780 913 917 0
-755 -773 780 0
-756 -770 -780 -915 0
-756 -770 -780 -919 0
-756 -770 780 915 919 0
-756 -771 -780 -916 0
-756 -771 -780 -920 0
-756 -771 780 916 920 0
-756 -772 -780 -917 0
-756 -772 -780 -921 0
-756 -772 780 917 921 0
-756 -773 780 0
-757 -770 -780 -919 0
-757 -770 -780 -923 0
-757 -770 780 919 923 0
-757 -771 -780 -920 0
-757 -771 -780 -924 0
-757 -771 780 920 924 0
-757 -772 -780 -921 0
-757 -772 -780 -925 0
-757 -772 780 921 925 0
-757 -773 780 0
-758 -774 -781 -903 0
-758 -774 -781 -907 0
-758 -774 -781 -911 0
-758 -774 781 903 907 911 0
-758 -775 -781 -904 0
-758 -775 -781 -908 0
-758 -775 -781 -912 0
-758 -775 781 904 908 912 0
-758 -776 -781 -905 0
-758 -776 -781 -909 0
-758 -776 -781 -913 0
-758 -776 781 905 909 913 0
-758 -777 781 0
-759 -774 -781 -907 0
-759 -774 -781 -911 0
-759 -774 -781 -915 0
-759 -774 781 907 911 915 0
-759 -775 -781 -908 0
-759 -775 -781 -912 0
-759 -775 -781 -916 0
-759 -775 781 908 912 916 0
-759 -776 -781 -909 0
-759 -776 -781 -913 0
-759 -776 -781 -917 0
-759 -776 781 909 913 917 0
-759 -777 781 0
-760 -774 -781 -911 0
-760 -774 -781 -915 0
-760 -774 -781 -919 0
-760 -774 781 911 915 919 0
-760 -775 -781 -912 0
-760 -775 -781 -916 0
-760 -775 -781 -920 0
-760 -775 781 912 916 920 0
-760 -776 -781 -913 0
-760 -776 -781 -917 0
-760 -776 -781 -921 0
-760 -776 781 913 917 921 0
-760 -777 781 0
-761 -774 -781 -915 0
-761 -774 -781 -919 0
-761 -774 -781 -923 0
-761 -774 781 915 919 923 0
-761 -775 -781 -916 0
-761 -775 -781 -920 0
-761 -775 -781 -924 0
-761 -775 781 916 920 924 0
-761 -776 -781 -917 0
-761 -776 -781 -921 0
-761 -776 -781 -925 0
-761 -776 781 917 921 925 0
-761 -777 781 0
926 927 928 929 930 931 0
-926 -927 0
-926 -928 0
-926 -929 0
-926 -930 0
-926 -931 0
-927 -928 0
-927 -929 0
-927 -930 0
-927 -931 0
-928 -929 0
-928 -930 0
-928 -931 0
-929 -930 0
-929 -931 0
-930 -931 0
947 948 949 950 0
-947 -948 0
-947 -949 0
-947 -950 0
-948 -949 0
-948 -950 0
-949 -950 0
932 933 934 935 936 937 0
-932 -933 0
-932 -934 0
-932 -935 0
-932 -936 0
-932 -937 0
-933 -934 0
-933 -935 0
-933 -936 0
-933 -937 0
-934 -935 0
-934 -936 0
-934 -937 0
-935 -936 0
-935 -937 0
-936 -937 0
951 952 953 954 0
-951 -952 0
-951 -953 0
-951 -954 0
-952 -953 0
-952 -954 0
-953 -954 0
938 939 940 941 942 0
-938 -939 0
-938 -940 0
-938 -941 0
-938 -942 0
-939 -940 0
-939 -941 0
-939 -942 0
-940 -941 0
-940 -942 0
-941 -942 0
955 956 957 958 0
-955 -956 0
-955 -957 0
-955 -958 0
-956 -957 0
-956 -958 0
-957 -958 0
943 944 945 946 0
-943 -944 0
-943 -945 0
-943 -946 0
-944 -945 0
-944 -946 0
-945 -946 0
959 960 961 962 0
-959 -960 0
-959 -961 0
-959 -962 0
-960 -961 0
-960 -962 0
-961 -962 0
-967 926 0
-926 967 0
-991 967 0
-991 947 0
-967 -947 991 0
-992 967 0
-992 948 0
-967 -948 992 0
-993 967 0
-993 949 0
-967 -949 993 0
-994 967 0
-994 950 0
-967 -950 994 0
-968 927 0
-927 968 0
-995 968 0
-995 947 0
-968 -947 995 0
-996 968 0
-996 948 0
-968 -948 996 0
-997 968 0
-997 949 0
-968 -949 997 0
-998 968 0
-998 950 0
-968 -950 998 0
-969 928 0
-928 969 0
-999 969 0
-999 947 0
-969 -947 999 0
-1000 969 0
-1000 948 0
-969 -948 1000 0
-1001 969 0
-1001 949 0
-969 -949 1001 0
-1002 969 0
-1002 950 0
-969 -950 1002 0
-970 929 0
-929 970 0
-1003 970 0
-1003 947 0
-970 -947 1003 0
-1004 970 0
-1004 948 0
-970 -948 1004 0
-1005 970 0
-1005 949 0
-970 -949 1005 0
-1006 970 0
-1006 950 0
-970 -950 1006 0
-971 930 0
-930 971 0
-1007 971 0
-1007 947 0
-971 -947 1007 0
-1008 971 0
-1008 948 0
-971 -948 1008 0
-1009 971 0
-1009 949 0
-971 -949 1009 0
-1010 971 0
-1010 950 0
-971 -950 1010 0
-972 931 0
-931 972 0
-1011 972 0
-1011 947 0
-972 -947 1011 0
-1012 972 0
-1012 948 0
-972 -948 1012 0
-1013 972 0
-1013 949 0
-972 -949 1013 0
-1014 972 0
-1014 950 0
-972 -950 1014 0
-973 932 0
-932 973 0
-1015 973 0
-1015 951 0
-973 -951 1015 0
-1016 973 0
-1016 952 0
-973 -952 1016 0
-1017 973 0
-1017 953 0
-973 -953 1017 0
-1018 973 0
-1018 954 0
-973 -954 1018 0
-974 933 0
-933 974 0
-1019 974 0
-1019 951 0
-974 -951 1019 0
-1020 974 0
-1020 952 0
-974 -952 1020 0
-1021 974 0
-1021 953 0
-974 -953 1021 0
-1022 974 0
-1022 954 0
-974 -954 1022 0
-975 934 0
-934 975 0
-1023 975 0
-1023 951 0
-975 -951 1023 0
-1024 975 0
-1024 952 0
-975 -952 1024 0
-1025 975 0
-1025 953 0
-975 -953 1025 0
-1026 975 0
-1026 954 0
-975 -954 1026 0
-976 935 0
-935 976 0
-1027 976 0
-1027 951 0
-976 -951 1027 0
-1028 976 0
-1028 952 0
-976 -952 1028 0
-1029 976 0
-1029 953 0
-976 -953 1029 0
-1030 976 0
-1030 954 0
-976 -954 1030 0
-977 936 0
-936 977 0
-1031 977 0
-1031 951 0
-977 -951 1031 0
-1032 977 0
-1032 952 0
-977 -952 1032 0
-1033 977 0
-1033 953 0
-977 -953 1033 0
-1034 977 0
-1034 954 0
-977 -954 1034 0
-978 937 0
-937 978 0
-1035 978 0
-1035 951 0
-978 -951 1035 0
-1036 978 0
-1036 952 0
-978 -952 1036 0
-1037 978 0
-1037 953 0
-978 -953 1037 0
-1038 978 0
-1038 954 0
-978 -954 1038 0
-979 938 0
-938 979 0
-1039 979 0
-1039 955 0
-979 -955 1039 0
-1040 979 0
-1040 956 0
-979 -956 1040 0
-1041 979 0
-1041 957 0
-979 -957 1041 0
-1042 979 0
-1042 958 0
-979 -958 1042 0
-980 938 939 0
-938 980 0
-939 980 0
-1043 980 0
-1043 955 0
-980 -955 1043 0
-1044 980 0
-1044 956 0
-980 -956 1044 0
-1045 980 0
-1045 957 0
-980 -957 1045 0
-1046 980 0
-1046 958 0
-980 -958 1046 0
-981 939 940 0
-939 981 0
-940 981 0
-1047 981 0
-1047 955 0
-981 -955 1047 0
-1048 981 0
-1048 956 0
-981 -956 1048 0
-1049 981 0
-1049 957 0
-981 -957 1049 0
-1050 981 0
-1050 958 0
-981 -958 1050 0
-982 940 941 0
-940 982 0
-941 982 0
-1051 982 0
-1051 955 0
-982 -955 1051 0
-1052 982 0
-1052 956 0
-982 -956 1052 0
-1053 982 0
-1053 957 0
-982 -957 1053 0
-1054 982 0
-1054 958 0
-982 -958 1054 0
-983 941 942 0
-941 983 0
-942 983 0
-1055 983 0
-1055 955 0
-983 -955 1055 0
-1056 983 0
-1056 956 0
-983 -956 1056 0
-1057 983 0
-1057 957 0
-983 -957 1057 0
-1058 983 0
-1058 958 0
-983 -958 1058 0
-984 942 0
-942 984 0
-1059 984 0
-1059 955 0
-984 -955 1059 0
-1060 984 0
-1060 956 0
-984 -956 1060 0
-1061 984 0
-1061 957 0
-984 -957 1061 0
-1062 984 0
-1062 958 0
-984 -958 1062 0
-985 943 0
-943 985 0
-1063 985 0
-1063 959 0
-985 -959 1063 0
-1064 985 0
-1064 960 0
-985 -960 1064 0
-1065 985 0
-1065 961 0
-985 -961 1065 0
-1066 985 0
-1066 962 0
-985 -962 1066 0
-986 943 944 0
-943 986 0
-944 986 0
-1067 986 0
-1067 959 0
-986 -959 1067 0
-1068 986 0
-1068 960 0
-986 -960 1068 0
-1069 986 0
-1069 961 0
-986 -961 1069 0
-1070 986 0
-1070 962 0
-986 -962 1070 0
-987 943 944 945 0
-943 987 0
-944 987 0
-945 987 0
-1071 987 0
-1071 959 0
-987 -959 1071 0
-1072 987 0
-1072 960 0
-987 -960 1072 0
-1073 987 0
-1073 961 0
-987 -961 1073 0
-1074 987 0
-1074 962 0
-987 -962 1074 0
-988 944 945 946 0
-944 988 0
-945 988 0
-946 988 0
-1075 988 0
-1075 959 0
-988 -959 1075 0
-1076 988 0
-1076 960 0
-988 -960 1076 0
-1077 988 0
-1077 961 0
-988 -961 1077 0
-1078 988 0
-1078 962 0
-988 -962 1078 0
-989 945 946 0
-945 989 0
-946 989 0
-1079 989 0
-1079 959 0
-989 -959 1079 0
-1080 989 0
-1080 960 0
-989 -960 1080 0
-1081 989 0
-1081 961 0
-989 -961 1081 0
-1082 989 0
-1082 962 0
-989 -962 1082 0
-990 946 0
-946 990 0
-1083 990 0
-1083 959 0
-990 -959 1083 0
-1084 990 0
-1084 960 0
-990 -960 1084 0
-1085 990 0
-1085 961 0
-990 -961 1085 0
-1086 990 0
-1086 962 0
-990 -962 1086 0
-1087 991 1015 1039 1063 0
-991 1087 0
-1015 1087 0
-1039 1087 0
-1063 1087 0
-1088 992 1016 1040 1064 0
-992 1088 0
-1016 1088 0
-1040 1088 0
-1064 1088 0
-1089 993 1017 1041 1065 0
-993 1089 0
-1017 1089 0
-1041 1089 0
-1065 1089 0
-1090 994 1018 1042 1066 0
-994 1090 0
-1018 1090 0
-1042 1090 0
-1066 1090 0
-1091 995 1019 1043 1067 0
-995 1091 0
-1019 1091 0
-1043 1091 0
-1067 1091 0
-1092 996 1020 1044 1068 0
-996 1092 0
-1020 1092 0
-1044 1092 0
-1068 1092 0
-1093 997 1021 1045 1069 0
-997 1093 0
-1021 1093 0
-1045 1093 0
-1069 1093 0
-1094 998 1022 1046 1070 0
-998 1094 0
-1022 1094 0
-1046 1094 0
-1070 1094 0
-1095 999 1023 1047 1071 0
-999 1095 0
-1023 1095 0
-1047 1095 0
-1071 1095 0
-1096 1000 1024 1048 1072 0
-1000 1096 0
-1024 1096 0
-1048 1096 0
-1072 1096 0
-1097 1001 1025 1049 1073 0
-1001 1097 0
-1025 1097 0
-1049 1097 0
-1073 1097 0
-1098 1002 1026 1050 1074 0
-1002 1098 0
-1026 1098 0
-1050 1098 0
-1074 1098 0
-1099 1003 1027 1051 1075 0
-1003 1099 0
-1027 1099 0
-1051 1099 0
-1075 1099 0
-1100 1004 1028 1052 1076 0
-1004 1100 0
-1028 1100 0
-1052 1100 0
-1076 1100 0
-1101 1005 1029 1053 1077 0
-1005 1101 0
-1029 1101 0
-1053 1101 0
-1077 1101 0
-1102 1006 1030 1054 1078 0
-1006 1102 0
-1030 1102 0
-1054 1102 0
-1078 1102 0
-1103 1007 1031 1055 1079 0
-1007 1103 0
-1031 1103 0
-1055 1103 0
-1079 1103 0
-1104 1008 1032 1056 1080 0
-1008 1104 0
-1032 1104 0
-1056 1104 0
-1080 1104 0
-1105 1009 1033 1057 1081 0
-1009 1105 0
-1033 1105 0
-1057 1105 0
-1081 1105 0
-1106 1010 1034 1058 1082 0
-1010 1106 0
-1034 1106 0
-1058 1106 0
-1082 1106 0
-1107 1011 1035 1059 1083 0
-1011 1107 0
-1035 1107 0
-1059 1107 0
-1083 1107 0
-1108 1012 1036 1060 1084 0
-1012 1108 0
-1036 1108 0
-1060 1108 0
-1084 1108 0
-1109 1013 1037 1061 1085 0
-1013 1109 0
-1037 1109 0
-1061 1109 0
-1085 1109 0
-1110 1014 1038 1062 1086 0
-1014 1110 0
-1038 1110 0
-1062 1110 0
-1086 1110 0
-991 -1015 0
-991 -1039 0
-991 -1063 0
-1015 -1039 0
-1015 -1063 0
-1039 -1063 0
-992 -1016 0
-992 -1040 0
-992 -1064 0
-1016 -1040 0
-1016 -1064 0
-1040 -1064 0
-993 -1017 0
-993 -1041 0
-993 -1065 0
-1017 -1041 0
-1017 -1065 0
-1041 -1065 0
-994 -1018 0
-994 -1042 0
-994 -1066 0
-1018 -1042 0
-1018 -1066 0
-1042 -1066 0
-995 -1019 0
-995 -1043 0
-995 -1067 0
-1019 -1043 0
-1019 -1067 0
-1043 -1067 0
-996 -1020 0
-996 -1044 0
-996 -1068 0
-1020 -1044 0
-1020 -1068 0
-1044 -1068 0
-997 -1021 0
-997 -1045 0
-997 -1069 0
-1021 -1045 0
-1021 -1069 0
-1045 -1069 0
-998 -1022 0
-998 -1046 0
-998 -1070 0
-1022 -1046 0
-1022 -1070 0
-1046 -1070 0
-999 -1023 0
-999 -1047 0
-999 -1071 0
-1023 -1047 0
-1023 -1071 0
-1047 -1071 0
-1000 -1024 0
-1000 -1048 0
-1000 -1072 0
-1024 -1048 0
-1024 -1072 0
-1048 -1072 0
-1001 -1025 0
-1001 -1049 0
-1001 -1073 0
-1025 -1049 0
-1025 -1073 0
-1049 -1073 0
-1002 -1026 0
-1002 -1050 0
-1002 -1074 0
-1026 -1050 0
-1026 -1074 0
-1050 -1074 0
-1003 -1027 0
-1003 -1051 0
-1003 -1075 0
-1027 -1051 0
-1027 -1075 0
-1051 -1075 0
-1004 -1028 0
-1004 -1052 0
-1004 -1076 0
-1028 -1052 0
-1028 -1076 0
-1052 -1076 0
-1005 -1029 0
-1005 -1053 0
-1005 -1077 0
-1029 -1053 0
-1029 -1077 0
-1053 -1077 0
-1006 -1030 0
-1006 -1054 0
-1006 -1078 0
-1030 -1054 0
-1030 -1078 0
-1054 -1078 0
-1007 -1031 0
-1007 -1055 0
-1007 -1079 0
-1031 -1055 0
-1031 -1079 0
-1055 -1079 0
-1008 -1032 0
-1008 -1056 0
-1008 -1080 0
-1032 -1056 0
-1032 -1080 0
-1056 -1080 0
-1009 -1033 0
-1009 -1057 0
-1009 -1081 0
-1033 -1057 0
-1033 -1081 0
-1057 -1081 0
-1010 -1034 0
-1010 -1058 0
-1010 -1082 0
-1034 -1058 0
-1034 -1082 0
-1058 -1082 0
-1011 -1035 0
-1011 -1059 0
-1011 -1083 0
-1035 -1059 0
-1035 -1083 0
-1059 -1083 0
-1012 -1036 0
-1012 -1060 0
-1012 -1084 0
-1036 -1060 0
-1036 -1084 0
-1060 -1084 0
-1013 -1037 0
-1013 -1061 0
-1013 -1085 0
-1037 -1061 0
-1037 -1085 0
-1061 -1085 0
-1014 -1038 0
-1014 -1062 0
-1014 -1086 0
-1038 -1062 0
-1038 -1086 0
-1062 -1086 0
-926 -948 1087 0
-926 -949 1088 0
-926 -950 1089 0
-927 -948 1091 0
-927 -949 1092 0
-927 -950 1093 0
-928 -948 1095 0
-928 -949 1096 0
-928 -950 1097 0
-929 -948 1099 0
-929 -949 1100 0
-929 -950 1101 0
-930 -948 1103 0
-930 -949 1104 0
-930 -950 1105 0
-931 -948 1107 0
-931 -949 1108 0
-931 -950 1109 0
-932 -952 1087 0
-932 -953 1088 0
-932 -954 1089 0
-933 -952 1091 0
-933 -953 1092 0
-933 -954 1093 0
-934 -952 1095 0
-934 -953 1096 0
-934 -954 1097 0
-935 -952 1099 0
-935 -953 1100 0
-935 -954 1101 0
-936 -952 1103 0
-936 -953 1104 0
-936 -954 1105 0
-937 -952 1107 0
-937 -953 1108 0
-937 -954 1109 0
-938 -956 1087 1091 0
-938 -957 1088 1092 0
-938 -958 1089 1093 0
-939 -956 1091 1095 0
-939 -957 1092 1096 0
-939 -958 1093 1097 0
-940 -956 1095 1099 0
-940 -957 1096 1100 0
-940 -958 1097 1101 0
-941 -956 1099 1103 0
-941 -957 1100 1104 0
-941 -958 1101 1105 0
-942 -956 1103 1107 0
-942 -957 1104 1108 0
-942 -958 1105 1109 0
-943 -960 1087 1091 0
-943 -960 1087 1095 0
-943 -960 1091 1095 0
-943 -961 1088 1092 0
-943 -961 1088 1096 0
-943 -961 1092 1096 0
-943 -962 1089 1093 0
-943 -962 1089 1097 0
-943 -962 1093 1097 0
-944 -960 1091 1095 0
-944 -960 1091 1099 0
-944 -960 1095 1099 0
-944 -961 1092 1096 0
-944 -961 1092 1100 0
-944 -961 1096 1100 0
-944 -962 1093 1097 0
-944 -962 1093 1101 0
-944 -962 1097 1101 0
-945 -960 1095 1099 0
-945 -960 1095 1103 0
-945 -960 1099 1103 0
-945 -961 1096 1100 0
-945 -961 1096 1104 0
-945 -961 1100 1104 0
-945 -962 1097 1101 0
-945 -962 1097 1105 0
-945 -962 1101 1105 0
-946 -960 1099 1103 0
-946 -960 1099 1107 0
-946 -960 1103 1107 0
-946 -961 1100 1104 0
-946 -961 1100 1108 0
-946 -961 1104 1108 0
-946 -962 1101 1105 0
-946 -962 1101 1109 0
-946 -962 1105 1109 0
-926 -947 -963 -1088 0
-926 -947 963 1088 0
-926 -948 -963 -1089 0
-926 -948 963 1089 0
-926 -949 -963 -1090 0
-926 -949 963 1090 0
-926 -950 963 0
-927 -947 -963 -1092 0
-927 -947 963 1092 0
-927 -948 -963 -1093 0
-927 -948 963 1093 0
-927 -949 -963 -1094 0
-927 -949 963 1094 0
-927 -950 963 0
-928 -947 -963 -1096 0
-928 -947 963 1096 0
-928 -948 -963 -1097 0
-928 -948 963 1097 0
-928 -949 -963 -1098 0
-928 -949 963 1098 0
-928 -950 963 0
-929 -947 -963 -1100 0
-929 -947 963 1100 0
-929 -948 -963 -1101 0
-929 -948 963 1101 0
-929 -949 -963 -1102 0
-929 -949 963 1102 0
-929 -950 963 0
-930 -947 -963 -1104 0
-930 -947 963 1104 0
-930 -948 -963 -1105 0
-930 -948 963 1105 0
-930 -949 -963 -1106 0
-930 -949 963 1106 0
-930 -950 963 0
-931 -947 -963 -1108 0
-931 -947 963 1108 0
-931 -948 -963 -1109 0
-931 -948 963 1109 0
-931 -949 -963 -1110 0
-931 -949 963 1110 0
-931 -950 963 0
-932 -951 -964 -1088 0
-932 -951 964 1088 0
-932 -952 -964 -1089 0
-932 -952 964 1089 0
-932 -953 -964 -1090 0
-932 -953 964 1090 0
-932 -954 964 0
-933 -951 -964 -1092 0
-933 -951 964 1092 0
-933 -952 -964 -1093 0
-933 -952 964 1093 0
-933 -953 -964 -1094 0
-933 -953 964 1094 0
-933 -954 964 0
-934 -951 -964 -1096 0
-934 -951 964 1096 0
-934 -952 -964 -1097 0
-934 -952 964 1097 0
-934 -953 -964 -1098 0
-934 -953 964 1098 0
-934 -954 964 0
-935 -951 -964 -1100 0
-935 -951 964 1100 0
-935 -952 -964 -1101 0
-935 -952 964 1101 0
-935 -953 -964 -1102 0
-935 -953 964 1102 0
-935 -954 964 0
-936 -951 -964 -1104 0
-936 -951 964 1104 0
-936 -952 -964 -1105 0
-936 -952 964 1105 0
-936 -953 -964 -1106 0
-936 -953 964 1106 0
-936 -954 964 0
-937 -951 -964 -1108 0
-937 -951 964 1108 0
-937 -952 -964 -1109 0
-937 -952 964 1109 0
-937 -953 -964 -1110 0
-937 -953 964 1110 0
-937 -954 964 0
-938 -955 -965 -1088 0
-938 -955 -965 -1092 0
-938 -955 965 1088 1092 0
-938 -956 -965 -1089 0
-938 -956 -965 -1093 0
-938 -956 965 1089 1093 0
-938 -957 -965 -1090 0
-938 -957 -965 -1094 0
-938 -957 965 1090 1094 0
-938 -958 965 0
-939 -955 -965 -1092 0
-939 -955 -965 -1096 0
-939 -955 965 1092 1096 0
-939 -956 -965 -1093 0
-939 -956 -965 -1097 0
-939 -956 965 1093 1097 0
-939 -957 -965 -1094 0
-939 -957 -965 -1098 0
-939 -957 965 1094 1098 0
-939 -958 965 0
-940 -955 -965 -1096 0
-940 -955 -965 -1100 0
-940 -955 965 1096 1100 0
-940 -956 -965 -1097 0
-940 -956 -965 -1101 0
-940 -956 965 1097 1101 0
-940 -957 -965 -1098 0
-940 -957 -965 -1102 0
-940 -957 965 1098 1102 0
-940 -958 965 0
-941 -955 -965 -1100 0
-941 -955 -965 -1104 0
-941 -955 965 1100 1104 0
-941 -956 -965 -1101 0
-941 -956 -965 -1105 0
-941 -956 965 1101 1105 0
-941 -957 -965 -1102 0
-941 -957 -965 -1106 0
-941 -957 965 1102 1106 0
-941 -958 965 0
-942 -955 -965 -1104 0
-942 -955 -965 -1108 0
-942 -955 965 1104 1108 0
-942 -956 -965 -1105 0
-942 -956 -965 -1109 0
-942 -956 965 1105 1109 0
-942 -957 -965 -1106 0
-942 -957 -965 -1110 0
-942 -957 965 1106 1110 0
-942 -958 965 0
-943 -959 -966 -1088 0
-943 -959 -966 -1092 0
-943 -959 -966 -1096 0
-943 -959 966 1088 1092 1096 0
-943 -960 -966 -1089 0
-943 -960 -966 -1093 0
-943 -960 -966 -1097 0
-943 -960 966 1089 1093 1097 0
-943 -961 -966 -1090 0
-943 -961 -966 -1094 0
-943 -961 -966 -1098 0
-943 -961 966 1090 1094 1098 0
-943 -962 966 0
-944 -959 -966 -1092 0
-944 -959 -966 -1096 0
-944 -959 -966 -1100 0
-944 -959 966 1092 1096 1100 0
-944 -960 -966 -1093 0
-944 -960 -966 -1097 0
-944 -960 -966 -1101 0
-944 -960 966 1093 1097 1101 0
-944 -961 -966 -1094 0
-944 -961 -966 -1098 0
-944 -961 -966 -1102 0
-944 -961 966 1094 1098 1102 0
-944 -962 966 0
-945 -959 -966 -1096 0
-945 -959 -966 -1100 0
-945 -959 -966 -1104 0
-945 -959 966 1096 1100 1104 0
-945 -960 -966 -1097 0
-945 -960 -966 -1101 0
-945 -960 -966 -1105 0
-945 -960 966 1097 1101 1105 0
-945 -961 -966 -1098 0
-945 -961 -966 -1102 0
-945 -961 -966 -1106 0
-945 -961 966 1098 1102 1106 0
-945 -962 966 0
-946 -959 -966 -1100 0
-946 -959 -966 -1104 0
-946 -959 -966 -1108 0
-946 -959 966 1100 1104 1108 0
-946 -960 -966 -1101 0
-946 -960 -966 -1105 0
-946 -960 -966 -1109 0
-946 -960 966 1101 1105 1109 0
-946 -961 -966 -1102 0
-946 -961 -966 -1106 0
-946 -961 -966 -1110 0
-946 -961 966 1102 1106 1110 0
-946 -962 966 0
-1111 -1112 0
-1111 -1113 0
-1111 -1114 0
-1111 -1115 0
-1111 -1116 0
-1111 -1117 0
-1111 -1118 0
-1111 -1119 0
-1111 -1120 0
-1111 -1121 0
-1111 -1122 0
-1111 -1123 0
-1111 -1124 0
-1111 -1125 0
-1111 -1126 0
-1111 -1127 0
-1111 -1128 0
-1111 -1129 0
-1111 -1130 0
-1111 -1131 0
-1111 -1132 0
-1111 -1133 0
-1111 -1134 0
-1111 -1135 0
-1111 -1136 0
-1111 -1137 0
-1111 -1138 0
-1111 -1139 0
-1111 -1140 0
-1111 -1141 0
-1111 -1142 0
-1111 -1143 0
-1111 -1144 0
-1111 -1145 0
-1111 -1146 0
-1111 -1147 0
-1111 -1148 0
-1111 -1149 0
-1111 -1150 0
-1111 -1151 0
-1111 -1152 0
-1111 -1153 0
-1111 -1154 0
-1111 -1155 0
-1111 -1156 0
-1111 -1157 0
-1111 -1158 0
-1111 -1159 0
-1111 -1160 0
-1111 -1161 0
-1111 -1162 0
-1111 -1163 0
-1111 -1164 0
-1111 -1165 0
-1111 -1166 0
-1111 -1167 0
-1111 -1168 0
-1111 -1169 0
-1111 -1170 0
-1111 -1171 0
-1111 -1172 0
-1111 -1173 0
-1111 -1174 0
-1111 -1175 0
-1111 -1176 0
-1111 -1177 0
-1111 -1178 0
-1111 -1179 0
-1111 -1180 0
-1111 -1181 0
-1111 -1182 0
-1111 -1183 0
-1111 -1184 0
-1111 -1185 0
-1111 -1186 0
-1111 -1187 0
-1111 -1188 0
-1111 -1189 0
-1111 -1190 0
-1111 -1191 0
-1111 -1192 0
-1111 -1193 0
-1111 -1194 0
-1112 -1113 0
-1112 -1114 0
-1112 -1115 0
-1112 -1116 0
-1112 -1117 0
-1112 -1118 0
-1112 -1119 0
-1112 -1120 0
-1112 -1121 0
-1112 -1122 0
-1112 -1123 0
-1112 -1124 0
-1112 -1125 0
-1112 -1126 0
-1112 -1127 0
-1112 -1128 0
-1112 -1129 0
-1112 -1130 0
-1112 -1131 0
-1112 -1132 0
-1112 -1133 0
-1112 -1134 0
-1112 -1135 0
-1112 -1136 0
-1112 -1137 0
-1112 -1138 0
-1112 -1139 0
-1112 -1140 0
-1112 -1141 0
-1112 -1142 0
-1112 -1143 0
-1112 -1144 0
-1112 -1145 0
-1112 -1146 0
-1112 -1147 0
-1112 -1148 0
-1112 -1149 0
-1112 -1150 0
-1112 -1151 0
-1112 -1152 0
-1112 -1153 0
-1112 -1154 0
-1112 -1155 0
-1112 -1156 0
-1112 -1157 0
-1112 -1158 0
-1112 -1159 0
-1112 -1160 0
-1112 -1161 0
-1112 -1162 0
-1112 -1163 0
-1112 -1164 0
-1112 -1165 0
-1112 -1166 0
-1112 -1167 0
-1112 -1168 0
-1112 -1169 0
-1112 -1170 0
-1112 -1171 0
-1112 -1172 0
-1112 -1173 0
-1112 -1174 0
-1112 -1175 0
-1112 -1176 0
-1112 -1177 0
-1112 -1178 0
-1112 -1179 0
-1112 -1180 0
-1112 -1181 0
-1112 -1182 0
-1112 -1183 0
-1112 -1184 0
-1112 -1185 0
-1112 -1186 0
-1112 -1187 0
-1112 -1188 0
-1112 -1189 0
-1112 -1190 0
-1112 -1191 0
-1112 -1192 0
-1112 -1193 0
-1112 -1194 0
-1113 -1114 0
-1113 -1115 0
-1113 -1116 0
-1113 -1117 0
-1113 -1118 0
-1113 -1119 0
-1113 -1120 0
-1113 -1121 0
-1113 -1122 0
-1113 -1123 0
-1113 -1124 0
-1113 -1125 0
-1113 -1126 0
-1113 -1127 0
-1113 -1128 0
-1113 -1129 0
-1113 -1130 0
-1113 -1131 0
-1113 -1132 0
-1113 -1133 0
-1113 -1134 0
-1113 -1135 0
-1113 -1136 0
-1113 -1137 0
-1113 -1138 0
-1113 -1139 0
-1113 -1140 0
-1113 -1141 0
-1113 -1142 0
-1113 -1143 0
-1113 -1144 0
-1113 -1145 0
-1113 -1146 0
-1113 -1147 0
-1113 -1148 0
-1113 -1149 0
-1113 -1150 0
-1113 -1151 0
-1113 -1152 0
-1113 -1153 0
-1113 -1154 0
-1113 -1155 0
-1113 -1156 0
-1113 -1157 0
-1113 -1158 0
-1113 -1159 0
-1113 -1160 0
-1113 -1161 0
-1113 -1162 0
-1113 -1163 0
-1113 -1164 0
-1113 -1165 0
-1113 -1166 0
-1113 -1167 0
-1113 -1168 0
-1113 -1169 0
-1113 -1170 0
-1113 -1171 0
-1113 -1172 0
-1113 -1173 0
-1113 -1174 0
-1113 -1175 0
-1113 -1176 0
-1113 -1177 0
-1113 -1178 0
-1113 -1179 0
-1113 -1180 0
-1113 -1181 0
-1113 -1182 0
-1113 -1183 0
-1113 -1184 0
-1113 -1185 0
-1113 -1186 0
-1113 -1187 0
-1113 -1188 0
-1113 -1189 0
-1113 -1190 0
-1113 -1191 0
-1113 -1192 0
-1113 -1193 0
-1113 -1194 0
-1114 -1115 0
-1114 -1116 0
-1114 -1117 0
-1114 -1118 0
-1114 -1119 0
-1114 -1120 0
-1114 -1121 0
-1114 -1122 0
-1114 -1123 0
-1114 -1124 0
-1114 -1125 0
-1114 -1126 0
-1114 -1127 0
-1114 -1128 0
-1114 -1129 0
-1114 -1130 0
-1114 -1131 0
-1114 -1132 0
-1114 -1133 0
-1114 -1134 0
-1114 -1135 0
-1114 -1136 0
-1114 -1137 0
-1114 -1138 0
-1114 -1139 0
-1114 -1140 0
-1114 -1141 0
-1114 -1142 0
-1114 -1143 0
-1114 -1144 0
-1114 -1145 0
-1114 -1146 0
-1114 -1147 0
-1114 -1148 0
-1114 -1149 0
-1114 -1150 0
-1114 -1151 0
-1114 -1152 0
-1114 -1153 0
-1114 -1154 0
-1114 -1155 0
-1114 -1156 0
-1114 -1157 0
-1114 -1158 0
-1114 -1159 0
-1114 -1160 0
-1114 -1161 0
-1114 -1162 0
-1114 -1163 0
-1114 -1164 0
-1114 -1165 0
-1114 -1166 0
-1114 -1167 0
-1114 -1168 0
-1114 -1169 0
-1114 -1170 0
-1114 -1171 0
-1114 -1172 0
-1114 -1173 0
-1114 -1174 0
-1114 -1175 0
-1114 -1176 0
-1114 -1177 0
-1114 -1178 0
-1114 -1179 0
-1114 -1180 0
-1114 -1181 0
-1114 -1182 0
-1114 -1183 0
-1114 -1184 0
-1114 -1185 0
-1114 -1186 0
-1114 -1187 0
-1114 -1188 0
-1114 -1189 0
-1114 -1190 0
-1114 -1191 0
-1114 -1192 0
-1114 -1193 0
-1114 -1194 0
-1115 -1116 0
-1115 -1117 0
-1115 -1118 0
-1115 -1119 0
-1115 -1120 0
-1115 -1121 0
-1115 -1122 0
-1115 -1123 0
-1115 -1124 0
-1115 -1125 0
-1115 -1126 0
-1115 -1127 0
-1115 -1128 0
-1115 -1129 0
-1115 -1130 0
-1115 -1131 0
-1115 -1132 0
-1115 -1133 0
-1115 -1134 0
-1115 -1135 0
-1115 -1136 0
-1115 -1137 0
-1115 -1138 0
-1115 -1139 0
-1115 -1140 0
-1115 -1141 0
-1115 -1142 0
-1115 -1143 0
-1115 -1144 0
-1115 -1145 0
-1115 -1146 0
-1115 -1147 0
-1115 -1148 0
-1115 -1149 0
-1115 -1150 0
-1115 -1151 0
-1115 -1152 0
-1115 -1153 0
-1115 -1154 0
-1115 -1155 0
-1115 -1156 0
-1115 -1157 0
-1115 -1158 0
-1115 -1159 0
-1115 -1160 0
-1115 -1161 0
-1115 -1162 0
-1115 -1163 0
-1115 -1164 0
-1115 -1165 0
-1115 -1166 0
-1115 -1167 0
-1115 -1168 0
-1115 -1169 0
-1115 -1170 0
-1115 -1171 0
-1115 -1172 0
-1115 -1173 0
-1115 -1174 0
-1115 -1175 0
-1115 -1176 0
-1115 -1177 0
-1115 -1178 0
-1115 -1179 0
-1115 -1180 0
-1115 -1181 0
-1115 -1182 0
-1115 -1183 0
-1115 -1184 0
-1115 -1185 0
-1115 -1186 0
-1115 -1187 0
-1115 -1188 0
-1115 -1189 0
-1115 -1190 0
-1115 -1191 0
-1115 -1192 0
-1115 -1193 0
-1115 -1194 0
-1116 -1117 0
-1116 -1118 0
-1116 -1119 0
-1116 -1120 0
-1116 -1121 0
-1116 -1122 0
-1116 -1123 0
-1116 -1124 0
-1116 -1125 0
-1116 -1126 0
-1116 -1127 0
-1116 -1128 0
-1116 -1129 0
-1116 -1130 0
-1116 -1131 0
-1116 -1132 0
-1116 -1133 0
-1116 -1134 0
-1116 -1135 0
-1116 -1136 0
-1116 -1137 0
-1116 -1138 0
-1116 -1139 0
-1116 -1140 0
-1116 -1141 0
-1116 -1142 0
-1116 -1143 0
-1116 -1144 0
-1116 -1145 0
-1116 -1146 0
-1116 -1147 0
-1116 -1148 0
-1116 -1149 0
-1116 -1150 0
-1116 -1151 0
-1116 -1152 0
-1116 -1153 0
-1116 -1154 0
-1116 -1155 0
-1116 -1156 0
-1116 -1157 0
-1116 -1158 0
-1116 -1159 0
-1116 -1160 0
-1116 -1161 0
-1116 -1162 0
-1116 -1163 0
-1116 -1164 0
-1116 -1165 0
-1116 -1166 0
-1116 -1167 0
-1116 -1168 0
-1116 -1169 0
-1116 -1170 0
-1116 -1171 0
-1116 -1172 0
-1116 -1173 0
-1116 -1174 0
-1116 -1175 0
-1116 -1176 0
-1116 -1177 0
-1116 -1178 0
-1116 -1179 0
-1116 -1180 0
-1116 -1181 0
-1116 -1182 0
-1116 -1183 0
-1116 -1184 0
-1116 -1185 0
-1116 -1186 0
-1116 -1187 0
-1116 -1188 0
-1116 -1189 0
-1116 -1190 0
-1116 -1191 0
-1116 -1192 0
-1116 -1193 0
-1116 -1194 0
-1117 -1118 0
-1117 -1119 0
-1117 -1120 0
-1117 -1121 0
-1117 -1122 0
-1117 -1123 0
-1117 -1124 0
-1117 -1125 0
-1117 -1126 0
-1117 -1127 0
-1117 -1128 0
-1117 -1129 0
-1117 -1130 0
-1117 -1131 0
-1117 -1132 0
-1117 -1133 0
-1117 -1134 0
-1117 -1135 0
-1117 -1136 0
-1117 -1137 0
-1117 -1138 0
-1117 -1139 0
-1117 -1140 0
-1117 -1141 0
-1117 -1142 0
-1117 -1143 0
-1117 -1144 0
-1117 -1145 0
-1117 -1146 0
-1117 -1147 0
-1117 -1148 0
-1117 -1149 0
-1117 -1150 0
-1117 -1151 0
-1117 -1152 0
-1117 -1153 0
-1117 -1154 0
-1117 -1155 0
-1117 -1156 0
-1117 -1157 0
-1117 -1158 0
-1117 -1159 0
-1117 -1160 0
-1117 -1161 0
-1117 -1162 0
-1117 -1163 0
-1117 -1164 0
-1117 -1165 0
-1117 -1166 0
-1117 -1167 0
-1117 -1168 0
-1117 -1169 0
-1117 -1170 0
-1117 -1171 0
-1117 -1172 0
-1117 -1173 0
-1117 -1174 0
-1117 -1175 0
-1117 -1176 0
-1117 -1177 0
-1117 -1178 0
-1117 -1179 0
-1117 -1180 0
-1117 -1181 0
-1117 -1182 0
-1117 -1183 0
-1117 -1184 0
-1117 -1185 0
-1117 -1186 0
-1117 -1187 0
-1117 -1188 0
-1117 -1189 0
-1117 -1190 0
-1117 -1191 0
-1117 -1192 0
-1117 -1193 0
-1117 -1194 0
-1118 -1119 0
-1118 -1120 0
-1118 -1121 0
-1118 -1122 0
-1118 -1123 0
-1118 -1124 0
-1118 -1125 0
-1118 -1126 0
-1118 -1127 0
-1118 -1128 0
-1118 -1129 0
-1118 -1130 0
-1118 -1131 0
-1118 -1132 0
-1118 -1133 0
-1118 -1134 0
-1118 -1135 0
-1118 -1136 0
-1118 -1137 0
-1118 -1138 0
-1118 -1139 0
-1118 -1140 0
-1118 -1141 0
-1118 -1142 0
-1118 -1143 0
-1118 -1144 0
-1118 -1145 0
-1118 -1146 0
-1118 -1147 0
-1118 -1148 0
-1118 -1149 0
-1118 -1150 0
-1118 -1151 0
-1118 -1152 0
-1118 -1153 0
-1118 -1154 0
-1118 -1155 0
-1118 -1156 0
-1118 -1157 0
-1118 -1158 0
-1118 -1159 0
-1118 -1160 0
-1118 -1161 0
-1118 -1162 0
-1118 -1163 0
-1118 -1164 0
-1118 -1165 0
-1118 -1166 0
-1118 -1167 0
-1118 -1168 0
-1118 -1169 0
-1118 -1170 0
-1118 -1171 0
-1118 -1172 0
-1118 -1173 0
-1118 -1174 0
-1118 -1175 0
-1118 -1176 0
-1118 -1177 0
-1118 -1178 0
-1118 -1179 0
-1118 -1180 0
-1118 -1181 0
-1118 -1182 0
-1118 -1183 0
-1118 -1184 0
-1118 -1185 0
-1118 -1186 0
-1118 -1187 0
-1118 -1188 0
-1118 -1189 0
-1118 -1190 0
-1118 -1191 0
-1118 -1192 0
-1118 -1193 0
-1118 -1194 0
-1119 -1120 0
-1119 -1121 0
-1119 -1122 0
-1119 -1123 0
-1119 -1124 0
-1119 -1125 0
-1119 -1126 0
-1119 -1127 0
-1119 -1128 0
-1119 -1129 0
-1119 -1130 0
-1119 -1131 0
-1119 -1132 0
-1119 -1133 0
-1119 -1134 0
-1119 -1135 0
-1119 -1136 0
-1119 -1137 0
-1119 -1138 0
-1119 -1139 0
-1119 -1140 0
-1119 -1141 0
-1119 -1142 0
-1119 -1143 0
-1119 -1144 0
-1119 -1145 0
-1119 -1146 0
-1119 -1147 0
-1119 -1148 0
-1119 -1149 0
-1119 -1150 0
-1119 -1151 0
-1119 -1152 0
-1119 -1153 0
-1119 -1154 0
-1119 -1155 0
-1119 -1156 0
-1119 -1157 0
-1119 -1158 0
-1119 -1159 0
-1119 -1160 0
-1119 -1161 0
-1119 -1162 0
-1119 -1163 0
-1119 -1164 0
-1119 -1165 0
-1119 -1166 0
-1119 -1167 0
-1119 -1168 0
-1119 -1169 0
-1119 -1170 0
-1119 -1171 0
-1119 -1172 0
-1119 -1173 0
-1119 -1174 0
-1119 -1175 0
-1119 -1176 0
-1119 -1177 0
-1119 -1178 0
-1119 -1179 0
-1119 -1180 0
-1119 -1181 0
-1119 -1182 0
-1119 -1183 0
-1119 -1184 0
-1119 -1185 0
-1119 -1186 0
-1119 -1187 0
-1119 -1188 0
-1119 -1189 0
-1119 -1190 0
-1119 -1191 0
-1119 -1192 0
-1119 -1193 0
-1119 -1194 0
-1120 -1121 0
-1120 -1122 0
-1120 -1123 0
-1120 -1124 0
-1120 -1125 0
-1120 -1126 0
-1120 -1127 0
-1120 -1128 0
-1120 -1129 0
-1120 -1130 0
-1120 -1131 0
-1120 -1132 0
-1120 -1133 0
-1120 -1134 0
-1120 -1135 0
-1120 -1136 0
-1120 -1137 0
-1120 -1138 0
-1120 -1139 0
-1120 -1140 0
-1120 -1141 0
-1120 -1142 0
-1120 -1143 0
-1120 -1144 0
-1120 -1145 0
-1120 -1146 0
-1120 -1147 0
-1120 -1148 0
-1120 -1149 0
-1120 -1150 0
-1120 -1151 0
-1120 -1152 0
-1120 -1153 0
-1120 -1154 0
-1120 -1155 0
-1120 -1156 0
-1120 -1157 0
-1120 -1158 0
-1120 -1159 0
-1120 -1160 0
-1120 -1161 0
-1120 -1162 0
-1120 -1163 0
-1120 -1164 0
-1120 -1165 0
-1120 -1166 0
-1120 -1167 0
-1120 -1168 0
-1120 -1169 0
-1120 -1170 0
-1120 -1171 0
-1120 -1172 0
-1120 -1173 0
-1120 -1174 0
-1120 -1175 0
-1120 -1176 0
-1120 -1177 0
-1120 -1178 0
-1120 -1179 0
-1120 -1180 0
-1120 -1181 0
-1120 -1182 0
-1120 -1183 0
-1120 -1184 0
-1120 -1185 0
-1120 -1186 0
-1120 -1187 0
-1120 -1188 0
-1120 -1189 0
-1120 -1190 0
-1120 -1191 0
-1120 -1192 0
-1120 -1193 0
-1120 -1194 0
-1121 -1122 0
-1121 -1123 0
-1121 -1124 0
-1121 -1125 0
-1121 -1126 0
-1121 -1127 0
-1121 -1128 0
-1121 -1129 0
-1121 -1130 0
-1121 -1131 0
-1121 -1132 0
-1121 -1133 0
-1121 -1134 0
-1121 -1135 0
-1121 -1136 0
-1121 -1137 0
-1121 -1138 0
-1121 -1139 0
-1121 -1140 0
-1121 -1141 0
-1121 -1142 0
-1121 -1143 0
-1121 -1144 0
-1121 -1145 0
-1121 -1146 0
-1121 -1147 0
-1121 -1148 0
-1121 -1149 0
-1121 -1150 0
-1121 -1151 0
-1121 -1152 0
-1121 -1153 0
-1121 -1154 0
-1121 -1155 0
-1121 -1156 0
-1121 -1157 0
-1121 -1158 0
-1121 -1159 0
-1121 -1160 0
-1121 -1161 0
-1121 -1162 0
-1121 -1163 0
-1121 -1164 0
-1121 -1165 0
-1121 -1166 0
-1121 -1167 0
-1121 -1168 0
-1121 -1169 0
-1121 -1170 0
-1121 -1171 0
-1121 -1172 0
-1121 -1173 0
-1121 -1174 0
-1121 -1175 0
-1121 -1176 0
-1121 -1177 0
-1121 -1178 0
-1121 -1179 0
-1121 -1180 0
-1121 -1181 0
-1121 -1182 0
-1121 -1183 0
-1121 -1184 0
-1121 -1185 0
-1121 -1186 0
-1121 -1187 0
-1121 -1188 0
-1121 -1189 0
-1121 -1190 0
-1121 -1191 0
-1121 -1192 0
-1121 -1193 0
-1121 -1194 0
-1122 -1123 0
-1122 -1124 0
-1122 -1125 0
-1122 -1126 0
-1122 -1127 0
-1122 -1128 0
-1122 -1129 0
-1122 -1130 0
-1122 -1131 0
-1122 -1132 0
-1122 -1133 0
-1122 -1134 0
-1122 -1135 0
-1122 -1136 0
-1122 -1137 0
-1122 -1138 0
-1122 -1139 0
-1122 -1140 0
-1122 -1141 0
-1122 -1142 0
-1122 -1143 0
-1122 -1144 0
-1122 -1145 0
-1122 -1146 0
-1122 -1147 0
-1122 -1148 0
-1122 -1149 0
-1122 -1150 0
-1122 -1151 0
-1122 -1152 0
-1122 -1153 0
-1122 -1154 0
-1122 -1155 0
-1122 -1156 0
-1122 -1157 0
-1122 -1158 0
-1122 -1159 0
-1122 -1160 0
-1122 -1161 0
-1122 -1162 0
-1122 -1163 0
-1122 -1164 0
-1122 -1165 0
-1122 -1166 0
-1122 -1167 0
-1122 -1168 0
-1122 -1169 0
-1122 -1170 0
-1122 -1171 0
-1122 -1172 0
-1122 -1173 0
-1122 -1174 0
-1122 -1175 0
-1122 -1176 0
-1122 -1177 0
-1122 -1178 0
-1122 -1179 0
-1122 -1180 0
-1122 -1181 0
-1122 -1182 0
-1122 -1183 0
-1122 -1184 0
-1122 -1185 0
-1122 -1186 0
-1122 -1187 0
-1122 -1188 0
-1122 -1189 0
-1122 -1190 0
-1122 -1191 0
-1122 -1192 0
-1122 -1193 0
-1122 -1194 0
-1123 -1124 0
-1123 -1125 0
-1123 -1126 0
-1123 -1127 0
-1123 -1128 0
-1123 -1129 0
-1123 -1130 0
-1123 -1131 0
-1123 -1132 0
-1123 -1133 0
-1123 -1134 0
-1123 -1135 0
-1123 -1136 0
-1123 -1137 0
-1123 -1138 0
-1123 -1139 0
-1123 -1140 0
-1123 -1141 0
-1123 -1142 0
-1123 -1143 0
-1123 -1144 0
-1123 -1145 0
-1123 -1146 0
-1123 -1147 0
-1123 -1148 0
-1123 -1149 0
-1123 -1150 0
-1123 -1151 0
-1123 -1152 0
-1123 -1153 0
-1123 -1154 0
-1123 -1155 0
-1123 -1156 0
-1123 -1157 0
-1123 -1158 0
-1123 -1159 0
-1123 -1160 0
-1123 -1161 0
-1123 -1162 0
-1123 -1163 0
-1123 -1164 0
-1123 -1165 0
-1123 -1166 0
-1123 -1167 0
-1123 -1168 0
-1123 -1169 0
-1123 -1170 0
-1123 -1171 0
-1123 -1172 0
-1123 -1173 0
-1123 -1174 0
-1123 -1175 0
-1123 -1176 0
-1123 -1177 0
-1123 -1178 0
-1123 -1179 0
-1123 -1180 0
-1123 -1181 0
-1123 -1182 0
-1123 -1183 0
-1123 -1184 0
-1123 -1185 0
-1123 -1186 0
-1123 -1187 0
-1123 -1188 0
-1123 -1189 0
-1123 -1190 0
-1123 -1191 0
-1123 -1192 0
-1123 -1193 0
-1123 -1194 0
-1124 -1125 0
-1124 -1126 0
-1124 -1127 0
-1124 -1128 0
-1124 -1129 0
-1124 -1130 0
-1124 -1131 0
-1124 -1132 0
-1124 -1133 0
-1124 -1134 0
-1124 -1135 0
-1124 -1136 0
-1124 -1137 0
-1124 -1138 0
-1124 -1139 0
-1124 -1140 0
-1124 -1141 0
-1124 -1142 0
-1124 -1143 0
-1124 -1144 0
-1124 -1145 0
-1124 -1146 0
-1124 -1147 0
-1124 -1148 0
-1124 -1149 0
-1124 -1150 0
-1124 -1151 0
-1124 -1152 0
-1124 -1153 0
-1124 -1154 0
-1124 -1155 0
-1124 -1156 0
-1124 -1157 0
-1124 -1158 0
-1124 -1159 0
-1124 -1160 0
-1124 -1161 0
-1124 -1162 0
-1124 -1163 0
-1124 -1164 0
-1124 -1165 0
-1124 -1166 0
-1124 -1167 0
-1124 -1168 0
-1124 -1169 0
-1124 -1170 0
-1124 -1171 0
-1124 -1172 0
-1124 -1173 0
-1124 -1174 0
-1124 -1175 0
-1124 -1176 0
-1124 -1177 0
-1124 -1178 0
-1124 -1179 0
-1124 -1180 0
-1124 -1181 0
-1124 -1182 0
-1124 -1183 0
-1124 -1184 0
-1124 -1185 0
-1124 -1186 0
-1124 -1187 0
-1124 -1188 0
-1124 -1189 0
-1124 -1190 0
-1124 -1191 0
-1124 -1192 0
-1124 -1193 0
-1124 -1194 0
-1125 -1126 0
-1125 -1127 0
-1125 -1128 0
-1125 -1129 0
-1125 -1130 0
-1125 -1131 0
-1125 -1132 0
-1125 -1133 0
-1125 -1134 0
-1125 -1135 0
-1125 -1136 0
-1125 -1137 0
-1125 -1138 0
-1125 -1139 0
-1125 -1140 0
-1125 -1141 0
-1125 -1142 0
-1125 -1143 0
-1125 -1144 0
-1125 -1145 0
-1125 -1146 0
-1125 -1147 0
-1125 -1148 0
-1125 -1149 0
-1125 -1150 0
-1125 -1151 0
-1125 -1152 0
-1125 -1153 0
-1125 -1154 0
-1125 -1155 0
-1125 -1156 0
-1125 -1157 0
-1125 -1158 0
-1125 -1159 0
-1125 -1160 0
-1125 -1161 0
-1125 -1162 0
-1125 -1163 0
-1125 -1164 0
-1125 -1165 0
-1125 -1166 0
-1125 -1167 0
-1125 -1168 0
-1125 -1169 0
-1125 -1170 0
-1125 -1171 0
-1125 -1172 0
-1125 -1173 0
-1125 -1174 0
-1125 -1175 0
-1125 -1176 0
-1125 -1177 0
-1125 -1178 0
-1125 -1179 0
-1125 -1180 0
-1125 -1181 0
-1125 -1182 0
-1125 -1183 0
-1125 -1184 0
-1125 -1185 0
-1125 -1186 0
-1125 -1187 0
-1125 -1188 0
-1125 -1189 0
-1125 -1190 0
-1125 -1191 0
-1125 -1192 0
-1125 -1193 0
-1125 -1194 0
-1126 -1127 0
-1126 -1128 0
-1126 -1129 0
-1126 -1130 0
-1126 -1131 0
-1126 -1132 0
-1126 -1133 0
-1126 -1134 0
-1126 -1135 0
-1126 -1136 0
-1126 -1137 0
-1126 -1138 0
-1126 -1139 0
-1126 -1140 0
-1126 -1141 0
-1126 -1142 0
-1126 -1143 0
-1126 -1144 0
-1126 -1145 0
-1126 -1146 0
-1126 -1147 0
-1126 -1148 0
-1126 -1149 0
-1126 -1150 0
-1126 -1151 0
-1126 -1152 0
-1126 -1153 0
-1126 -1154 0
-1126 -1155 0
-1126 -1156 0
-1126 -1157 0
-1126 -1158 0
-1126 -1159 0
-1126 -1160 0
-1126 -1161 0
-1126 -1162 0
-1126 -1163 0
-1126 -1164 0
-1126 -1165 0
-1126 -1166 0
-1126 -1167 0
-1126 -1168 0
-1126 -1169 0
-1126 -1170 0
-1126 -1171 0
-1126 -1172 0
-1126 -1173 0
-1126 -1174 0
-1126 -1175 0
-1126 -1176 0
-1126 -1177 0
-1126 -1178 0
-1126 -1179 0
-1126 -1180 0
-1126 -1181 0
-1126 -1182 0
-1126 -1183 0
-1126 -1184 0
-1126 -1185 0
-1126 -1186 0
-1126 -1187 0
-1126 -1188 0
-1126 -1189 0
-1126 -1190 0
-1126 -1191 0
-1126 -1192 0
-1126 -1193 0
-1126 -1194 0
-1127 -1128 0
-1127 -1129 0
-1127 -1130 0
-1127 -1131 0
-1127 -1132 0
-1127 -1133 0
-1127 -1134 0
-1127 -1135 0
-1127 -1136 0
-1127 -1137 0
-1127 -1138 0
-1127 -1139 0
-1127 -1140 0
-1127 -1141 0
-1127 -1142 0
-1127 -1143 0
-1127 -1144 0
-1127 -1145 0
-1127 -1146 0
-1127 -1147 0
-1127 -1148 0
-1127 -1149 0
-1127 -1150 0
-1127 -1151 0
-1127 -1152 0
-1127 -1153 0
-1127 -1154 0
-1127 -1155 0
-1127 -1156 0
-1127 -1157 0
-1127 -1158 0
-1127 -1159 0
-1127 -1160 0
-1127 -1161 0
-1127 -1162 0
-1127 -1163 0
-1127 -1164 0
-1127 -1165 0
-1127 -1166 0
-1127 -1167 0
-1127 -1168 0
-1127 -1169 0
-1127 -1170 0
-1127 -1171 0
-1127 -1172 0
-1127 -1173 0
-1127 -1174 0
-1127 -1175 0
-1127 -1176 0
-1127 -1177 0
-1127 -1178 0
-1127 -1179 0
-1127 -1180 0
-1127 -1181 0
-1127 -1182 0
-1127 -1183 0
-1127 -1184 0
-1127 -1185 0
-1127 -1186 0
-1127 -1187 0
-1127 -1188 0
-1127 -1189 0
-1127 -1190 0
-1127 -1191 0
-1127 -1192 0
-1127 -1193 0
-1127 -1194 0
-1128 -1129 0
-1128 -1130 0
-1128 -1131 0
-1128 -1132 0
-1128 -1133 0
-1128 -1134 0
-1128 -1135 0
-1128 -1136 0
-1128 -1137 0
-1128 -1138 0
-1128 -1139 0
-1128 -1140 0
-1128 -1141 0
-1128 -1142 0
-1128 -1143 0
-1128 -1144 0
-1128 -1145 0
-1128 -1146 0
-1128 -1147 0
-1128 -1148 0
-1128 -1149 0
-1128 -1150 0
-1128 -1151 0
-1128 -1152 0
-1128 -1153 0
-1128 -1154 0
-1128 -1155 0
-1128 -1156 0
-1128 -1157 0
-1128 -1158 0
-1128 -1159 0
-1128 -1160 0
-1128 -1161 0
-1128 -1162 0
-1128 -1163 0
-1128 -1164 0
-1128 -1165 0
-1128 -1166 0
-1128 -1167 0
-1128 -1168 0
-1128 -1169 0
-1128 -1170 0
-1128 -1171 0
-1128 -1172 0
-1128 -1173 0
-1128 -1174 0
-1128 -1175 0
-1128 -1176 0
-1128 -1177 0
-1128 -1178 0
-1128 -1179 0
-1128 -1180 0
-1128 -1181 0
-1128 -1182 0
-1128 -1183 0
-1128 -1184 0
-1128 -1185 0
-1128 -1186 0
-1128 -1187 0
-1128 -1188 0
-1128 -1189 0
-1128 -1190 0
-1128 -1191 0
-1128 -1192 0
-1128 -1193 0
-1128 -1194 0
-1129 -1130 0
-1129 -1131 0
-1129 -1132 0
-1129 -1133 0
-1129 -1134 0
-1129 -1135 0
-1129 -1136 0
-1129 -1137 0
-1129 -1138 0
-1129 -1139 0
-1129 -1140 0
-1129 -1141 0
-1129 -1142 0
-1129 -1143 0
-1129 -1144 0
-1129 -1145 0
-1129 -1146 0
-1129 -1147 0
-1129 -1148 0
-1129 -1149 0
-1129 -1150 0
-1129 -1151 0
-1129 -1152 0
-1129 -1153 0
-1129 -1154 0
-1129 -1155 0
-1129 -1156 0
-1129 -1157 0
-1129 -1158 0
-1129 -1159 0
-1129 -1160 0
-1129 -1161 0
-1129 -1162 0
-1129 -1163 0
-1129 -1164 0
-1129 -1165 0
-1129 -1166 0
-1129 -1167 0
-1129 -1168 0
-1129 -1169 0
-1129 -1170 0
-1129 -1171 0
-1129 -1172 0
-1129 -1173 0
-1129 -1174 0
-1129 -1175 0
-1129 -1176 0
-1129 -1177 0
-1129 -1178 0
-1129 -1179 0
-1129 -1180 0
-1129 -1181 0
-1129 -1182 0
-1129 -1183 0
-1129 -1184 0
-1129 -1185 0
-1129 -1186 0
-1129 -1187 0
-1129 -1188 0
-1129 -1189 0
-1129 -1190 0
-1129 -1191 0
-1129 -1192 0
-1129 -1193 0
-1129 -1194 0
-1130 -1131 0
-1130 -1132 0
-1130 -1133 0
-1130 -1134 0
-1130 -1135 0
-1130 -1136 0
-1130 -1137 0
-1130 -1138 0
-1130 -1139 0
-1130 -1140 0
-1130 -1141 0
-1130 -1142 0
-1130 -1143 0
-1130 -1144 0
-1130 -1145 0
-1130 -1146 0
-1130 -1147 0
-1130 -1148 0
-1130 -1149 0
-1130 -1150 0
-1130 -1151 0
-1130 -1152 0
-1130 -1153 0
-1130 -1154 0
-1130 -1155 0
-1130 -1156 0
-1130 -1157 0
-1130 -1158 0
-1130 -1159 0
-1130 -1160 0
-1130 -1161 0
-1130 -1162 0
-1130 -1163 0
-1130 -1164 0
-1130 -1165 0
-1130 -1166 0
-1130 -1167 0
-1130 -1168 0
-1130 -1169 0
-1130 -1170 0
-1130 -1171 0
-1130 -1172 0
-1130 -1173 0
-1130 -1174 0
-1130 -1175 0
-1130 -1176 0
-1130 -1177 0
-1130 -1178 0
-1130 -1179 0
-1130 -1180 0
-1130 -1181 0
-1130 -1182 0
-1130 -1183 0
-1130 -1184 0
-1130 -1185 0
-1130 -1186 0
-1130 -1187 0
-1130 -1188 0
-1130 -1189 0
-1130 -1190 0
-1130 -1191 0
-1130 -1192 0
-1130 -1193 0
-1130 -1194 0
-1131 -1132 0
-1131 -1133 0
-1131 -1134 0
-1131 -1135 0
-1131 -1136 0
-1131 -1137 0
-1131 -1138 0
-1131 -1139 0
-1131 -1140 0
-1131 -1141 0
-1131 -1142 0
-1131 -1143 0
-1131 -1144 0
-1131 -1145 0
-1131 -1146 0
-1131 -1147 0
-1131 -1148 0
-1131 -1149 0
-1131 -1150 0
-1131 -1151 0
-1131 -1152 0
-1131 -1153 0
-1131 -1154 0
-1131 -1155 0
-1131 -1156 0
-1131 -1157 0
-1131 -1158 0
-1131 -1159 0
-1131 -1160 0
-1131 -1161 0
-1131 -1162 0
-1131 -1163 0
-1131 -1164 0
-1131 -1165 0
-1131 -1166 0
-1131 -1167 0
-1131 -1168 0
-1131 -1169 0
-1131 -1170 0
-1131 -1171 0
-1131 -1172 0
-1131 -1173 0
-1131 -1174 0
-1131 -1175 0
-1131 -1176 0
-1131 -1177 0
-1131 -1178 0
-1131 -1179 0
-1131 -1180 0
-1131 -1181 0
-1131 -1182 0
-1131 -1183 0
-1131 -1184 0
-1131 -1185 0
-1131 -1186 0
-1131 -1187 0
-1131 -1188 0
-1131 -1189 0
-1131 -1190 0
-1131 -1191 0
-1131 -1192 0
-1131 -1193 0
-1131 -1194 0
-1132 -1133 0
-1132 -1134 0
-1132 -1135 0
-1132 -1136 0
-1132 -1137 0
-1132 -1138 0
-1132 -1139 0
-1132 -1140 0
-1132 -1141 0
-1132 -1142 0
-1132 -1143 0
-1132 -1144 0
-1132 -1145 0
-1132 -1146 0
-1132 -1147 0
-1132 -1148 0
-1132 -1149 0
-1132 -1150 0
-1132 -1151 0
-1132 -1152 0
-1132 -1153 0
-1132 -1154 0
-1132 -1155 0
-1132 -1156 0
-1132 -1157 0
-1132 -1158 0
-1132 -1159 0
-1132 -1160 0
-1132 -1161 0
-1132 -1162 0
-1132 -1163 0
-1132 -1164 0
-1132 -1165 0
-1132 -1166 0
-1132 -1167 0
-1132 -1168 0
-1132 -1169 0
-1132 -1170 0
-1132 -1171 0
-1132 -1172 0
-1132 -1173 0
-1132 -1174 0
-1132 -1175 0
-1132 -1176 0
-1132 -1177 0
-1132 -1178 0
-1132 -1179 0
-1132 -1180 0
-1132 -1181 0
-1132 -1182 0
-1132 -1183 0
-1132 -1184 0
-1132 -1185 0
-1132 -1186 0
-1132 -1187 0
-1132 -1188 0
-1132 -1189 0
-1132 -1190 0
-1132 -1191 0
-1132 -1192 0
-1132 -1193 0
-1132 -1194 0
-1133 -1134 0
-1133 -1135 0
-1133 -1136 0
-1133 -1137 0
-1133 -1138 0
-1133 -1139 0
-1133 -1140 0
-1133 -1141 0
-1133 -1142 0
-1133 -1143 0
-1133 -1144 0
-1133 -1145 0
-1133 -1146 0
-1133 -1147 0
-1133 -1148 0
-1133 -1149 0
-1133 -1150 0
-1133 -1151 0
-1133 -1152 0
-1133 -1153 0
-1133 -1154 0
-1133 -1155 0
-1133 -1156 0
-1133 -1157 0
-1133 -1158 0
-1133 -1159 0
-1133 -1160 0
-1133 -1161 0
-1133 -1162 0
-1133 -1163 0
-1133 -1164 0
-1133 -1165 0
-1133 -1166 0
-1133 -1167 0
-1133 -1168 0
-1133 -1169 0
-1133 -1170 0
-1133 -1171 0
-1133 -1172 0
-1133 -1173 0
-1133 -1174 0
-1133 -1175 0
-1133 -1176 0
-1133 -1177 0
-1133 -1178 0
-1133 -1179 0
-1133 -1180 0
-1133 -1181 0
-1133 -1182 0
-1133 -1183 0
-1133 -1184 0
-1133 -1185 0
-1133 -1186 0
-1133 -1187 0
-1133 -1188 0
-1133 -1189 0
-1133 -1190 0
-1133 -1191 0
-1133 -1192 0
-1133 -1193 0
-1133 -1194 0
-1134 -1135 0
-1134 -1136 0
-1134 -1137 0
-1134 -1138 0
-1134 -1139 0
-1134 -1140 0
-1134 -1141 0
-1134 -1142 0
-1134 -1143 0
-1134 -1144 0
-1134 -1145 0
-1134 -1146 0
-1134 -1147 0
-1134 -1148 0
-1134 -1149 0
-1134 -1150 0
-1134 -1151 0
-1134 -1152 0
-1134 -1153 0
-1134 -1154 0
-1134 -1155 0
-1134 -1156 0
-1134 -1157 0
-1134 -1158 0
-1134 -1159 0
-1134 -1160 0
-1134 -1161 0
-1134 -1162 0
-1134 -1163 0
-1134 -1164 0
-1134 -1165 0
-1134 -1166 0
-1134 -1167 0
-1134 -1168 0
-1134 -1169 0
-1134 -1170 0
-1134 -1171 0
-1134 -1172 0
-1134 -1173 0
-1134 -1174 0
-1134 -1175 0
-1134 -1176 0
-1134 -1177 0
-1134 -1178 0
-1134 -1179 0
-1134 -1180 0
-1134 -1181 0
-1134 -1182 0
-1134 -1183 0
-1134 -1184 0
-1134 -1185 0
-1134 -1186 0
-1134 -1187 0
-1134 -1188 0
-1134 -1189 0
-1134 -1190 0
-1134 -1191 0
-1134 -1192 0
-1134 -1193 0
-1134 -1194 0
-1135 -1136 0
-1135 -1137 0
-1135 -1138 0
-1135 -1139 0
-1135 -1140 0
-1135 -1141 0
-1135 -1142 0
-1135 -1143 0
-1135 -1144 0
-1135 -1145 0
-1135 -1146 0
-1135 -1147 0
-1135 -1148 0
-1135 -1149 0
-1135 -1150 0
-1135 -1151 0
-1135 -1152 0
-1135 -1153 0
-1135 -1154 0
-1135 -1155 0
-1135 -1156 0
-1135 -1157 0
-1135 -1158 0
-1135 -1159 0
-1135 -1160 0
-1135 -1161 0
-1135 -1162 0
-1135 -1163 0
-1135 -1164 0
-1135 -1165 0
-1135 -1166 0
-1135 -1167 0
-1135 -1168 0
-1135 -1169 0
-1135 -1170 0
-1135 -1171 0
-1135 -1172 0
-1135 -1173 0
-1135 -1174 0
-1135 -1175 0
-1135 -1176 0
-1135 -1177 0
-1135 -1178 0
-1135 -1179 0
-1135 -1180 0
-1135 -1181 0
-1135 -1182 0
-1135 -1183 0
-1135 -1184 0
-1135 -1185 0
-1135 -1186 0
-1135 -1187 0
-1135 -1188 0
-1135 -1189 0
-1135 -1190 0
-1135 -1191 0
-1135 -1192 0
-1135 -1193 0
-1135 -1194 0
-1136 -1137 0
-1136 -1138 0
-1136 -1139 0
-1136 -1140 0
-1136 -1141 0
-1136 -1142 0
-1136 -1143 0
-1136 -1144 0
-1136 -1145 0
-1136 -1146 0
-1136 -1147 0
-1136 -1148 0
-1136 -1149 0
-1136 -1150 0
-1136 -1151 0
-1136 -1152 0
-1136 -1153 0
-1136 -1154 0
-1136 -1155 0
-1136 -1156 0
-1136 -1157 0
-1136 -1158 0
-1136 -1159 0
-1136 -1160 0
-1136 -1161 0
-1136 -1162 0
-1136 -1163 0
-1136 -1164 0
-1136 -1165 0
-1136 -1166 0
-1136 -1167 0
-1136 -1168 0
-1136 -1169 0
-1136 -1170 0
-1136 -1171 0
-1136 -1172 0
-1136 -1173 0
-1136 -1174 0
-1136 -1175 0
-1136 -1176 0
-1136 -1177 0
-1136 -1178 0
-1136 -1179 0
-1136 -1180 0
-1136 -1181 0
-1136 -1182 0
-1136 -1183 0
-1136 -1184 0
-1136 -1185 0
-1136 -1186 0
-1136 -1187 0
-1136 -1188 0
-1136 -1189 0
-1136 -1190 0
-1136 -1191 0
-1136 -1192 0
-1136 -1193 0
-1136 -1194 0
-1137 -1138 0
-1137 -1139 0
-1137 -1140 0
-1137 -1141 0
-1137 -1142 0
-1137 -1143 0
-1137 -1144 0
-1137 -1145 0
-1137 -1146 0
-1137 -1147 0
-1137 -1148 0
-1137 -1149 0
-1137 -1150 0
-1137 -1151 0
-1137 -1152 0
-1137 -1153 0
-1137 -1154 0
-1137 -1155 0
-1137 -1156 0
-1137 -1157 0
-1137 -1158 0
-1137 -1159 0
-1137 -1160 0
-1137 -1161 0
-1137 -1162 0
-1137 -1163 0
-1137 -1164 0
-1137 -1165 0
-1137 -1166 0
-1137 -1167 0
-1137 -1168 0
-1137 -1169 0
-1137 -1170 0
-1137 -1171 0
-1137 -1172 0
-1137 -1173 0
-1137 -1174 0
-1137 -1175 0
-1137 -1176 0
-1137 -1177 0
-1137 -1178 0
-1137 -1179 0
-1137 -1180 0
-1137 -1181 0
-1137 -1182 0
-1137 -1183 0
-1137 -1184 0
-1137 -1185 0
-1137 -1186 0
-1137 -1187 0
-1137 -1188 0
-1137 -1189 0
-1137 -1190 0
-1137 -1191 0
-1137 -1192 0
-1137 -1193 0
-1137 -1194 0
-1138 -1139 0
-1138 -1140 0
-1138 -1141 0
-1138 -1142 0
-1138 -1143 0
-1138 -1144 0
-1138 -1145 0
-1138 -1146 0
-1138 -1147 0
-1138 -1148 0
-1138 -1149 0
-1138 -1150 0
-1138 -1151 0
-1138 -1152 0
-1138 -1153 0
-1138 -1154 0
-1138 -1155 0
-1138 -1156 0
-1138 -1157 0
-1138 -1158 0
-1138 -1159 0
-1138 -1160 0
-1138 -1161 0
-1138 -1162 0
-1138 -1163 0
-1138 -1164 0
-1138 -1165 0
-1138 -1166 0
-1138 -1167 0
-1138 -1168 0
-1138 -1169 0
-1138 -1170 0
-1138 -1171 0
-1138 -1172 0
-1138 -1173 0
-1138 -1174 0
-1138 -1175 0
-1138 -1176 0
-1138 -1177 0
-1138 -1178 0
-1138 -1179 0
-1138 -1180 0
-1138 -1181 0
-1138 -1182 0
-1138 -1183 0
-1138 -1184 0
-1138 -1185 0
-1138 -1186 0
-1138 -1187 0
-1138 -1188 0
-1138 -1189 0
-1138 -1190 0
-1138 -1191 0
-1138 -1192 0
-1138 -1193 0
-1138 -1194 0
-1139 -1140 0
-1139 -1141 0
-1139 -1142 0
-1139 -1143 0
-1139 -1144 0
-1139 -1145 0
-1139 -1146 0
-1139 -1147 0
-1139 -1148 0
-1139 -1149 0
-1139 -1150 0
-1139 -1151 0
-1139 -1152 0
-1139 -1153 0
-1139 -1154 0
-1139 -1155 0
-1139 -1156 0
-1139 -1157 0
-1139 -1158 0
-1139 -1159 0
-1139 -1160 0
-1139 -1161 0
-1139 -1162 0
-1139 -1163 0
-1139 -1164 0
-1139 -1165 0
-1139 -1166 0
-1139 -1167 0
-1139 -1168 0
-1139 -1169 0
-1139 -1170 0
-1139 -1171 0
-1139 -1172 0
-1139 -1173 0
-1139 -1174 0
-1139 -1175 0
-1139 -1176 0
-1139 -1177 0
-1139 -1178 0
-1139 -1179 0
-1139 -1180 0
-1139 -1181 0
-1139 -1182 0
-1139 -1183 0
-1139 -1184 0
-1139 -1185 0
-1139 -1186 0
-1139 -1187 0
-1139 -1188 0
-1139 -1189 0
-1139 -1190 0
-1139 -1191 0
-1139 -1192 0
-1139 -1193 0
-1139 -1194 0
-1140 -1141 0
-1140 -1142 0
-1140 -1143 0
-1140 -1144 0
-1140 -1145 0
-1140 -1146 0
-1140 -1147 0
-1140 -1148 0
-1140 -1149 0
-1140 -1150 0
-1140 -1151 0
-1140 -1152 0
-1140 -1153 0
-1140 -1154 0
-1140 -1155 0
-1140 -1156 0
-1140 -1157 0
-1140 -1158 0
-1140 -1159 0
-1140 -1160 0
-1140 -1161 0
-1140 -1162 0
-1140 -1163 0
-1140 -1164 0
-1140 -1165 0
-1140 -1166 0
-1140 -1167 0
-1140 -1168 0
-1140 -1169 0
-1140 -1170 0
-1140 -1171 0
-1140 -1172 0
-1140 -1173 0
-1140 -1174 0
-1140 -1175 0
-1140 -1176 0
-1140 -1177 0
-1140 -1178 0
-1140 -1179 0
-1140 -1180 0
-1140 -1181 0
-1140 -1182 0
-1140 -1183 0
-1140 -1184 0
-1140 -1185 0
-1140 -1186 0
-1140 -1187 0
-1140 -1188 0
-1140 -1189 0
-1140 -1190 0
-1140 -1191 0
-1140 -1192 0
-1140 -1193 0
-1140 -1194 0
-1141 -1142 0
-1141 -1143 0
-1141 -1144 0
-1141 -1145 0
-1141 -1146 0
-1141 -1147 0
-1141 -1148 0
-1141 -1149 0
-1141 -1150 0
-1141 -1151 0
-1141 -1152 0
-1141 -1153 0
-1141 -1154 0
-1141 -1155 0
-1141 -1156 0
-1141 -1157 0
-1141 -1158 0
-1141 -1159 0
-1141 -1160 0
-1141 -1161 0
-1141 -1162 0
-1141 -1163 0
-1141 -1164 0
-1141 -1165 0
-1141 -1166 0
-1141 -1167 0
-1141 -1168 0
-1141 -1169 0
-1141 -1170 0
-1141 -1171 0
-1141 -1172 0
-1141 -1173 0
-1141 -1174 0
-1141 -1175 0
-1141 -1176 0
-1141 -1177 0
-1141 -1178 0
-1141 -1179 0
-1141 -1180 0
-1141 -1181 0
-1141 -1182 0
-1141 -1183 0
-1141 -1184 0
-1141 -1185 0
-1141 -1186 0
-1141 -1187 0
-1141 -1188 0
-1141 -1189 0
-1141 -1190 0
-1141 -1191 0
-1141 -1192 0
-1141 -1193 0
-1141 -1194 0
-1142 -1143 0
-1142 -1144 0
-1142 -1145 0
-1142 -1146 0
-1142 -1147 0
-1142 -1148 0
-1142 -1149 0
-1142 -1150 0
-1142 -1151 0
-1142 -1152 0
-1142 -1153 0
-1142 -1154 0
-1142 -1155 0
-1142 -1156 0
-1142 -1157 0
-1142 -1158 0
-1142 -1159 0
-1142 -1160 0
-1142 -1161 0
-1142 -1162 0
-1142 -1163 0
-1142 -1164 0
-1142 -1165 0
-1142 -1166 0
-1142 -1167 0
-1142 -1168 0
-1142 -1169 0
-1142 -1170 0
-1142 -1171 0
-1142 -1172 0
-1142 -1173 0
-1142 -1174 0
-1142 -1175 0
-1142 -1176 0
-1142 -1177 0
-1142 -1178 0
-1142 -1179 0
-1142 -1180 0
-1142 -1181 0
-1142 -1182 0
-1142 -1183 0
-1142 -1184 0
-1142 -1185 0
-1142 -1186 0
-1142 -1187 0
-1142 -1188 0
-1142 -1189 0
-1142 -1190 0
-1142 -1191 0
-1142 -1192 0
-1142 -1193 0
-1142 -1194 0
-1143 -1144 0
-1143 -1145 0
-1143 -1146 0
-1143 -1147 0
-1143 -1148 0
-1143 -1149 0
-1143 -1150 0
-1143 -1151 0
-1143 -1152 0
-1143 -1153 0
-1143 -1154 0
-1143 -1155 0
-1143 -1156 0
-1143 -1157 0
-1143 -1158 0
-1143 -1159 0
-1143 -1160 0
-1143 -1161 0
-1143 -1162 0
-1143 -1163 0
-1143 -1164 0
-1143 -1165 0
-1143 -1166 0
-1143 -1167 0
-1143 -1168 0
-1143 -1169 0
-1143 -1170 0
-1143 -1171 0
-1143 -1172 0
-1143 -1173 0
-1143 -1174 0
-1143 -1175 0
-1143 -1176 0
-1143 -1177 0
-1143 -1178 0
-1143 -1179 0
-1143 -1180 0
-1143 -1181 0
-1143 -1182 0
-1143 -1183 0
-1143 -1184 0
-1143 -1185 0
-1143 -1186 0
-1143 -1187 0
-1143 -1188 0
-1143 -1189 0
-1143 -1190 0
-1143 -1191 0
-1143 -1192 0
-1143 -1193 0
-1143 -1194 0
-1144 -1145 0
-1144 -1146 0
-1144 -1147 0
-1144 -1148 0
-1144 -1149 0
-1144 -1150 0
-1144 -1151 0
-1144 -1152 0
-1144 -1153 0
-1144 -1154 0
-1144 -1155 0
-1144 -1156 0
-1144 -1157 0
-1144 -1158 0
-1144 -1159 0
-1144 -1160 0
-1144 -1161 0
-1144 -1162 0
-1144 -1163 0
-1144 -1164 0
-1144 -1165 0
-1144 -1166 0
-1144 -1167 0
-1144 -1168 0
-1144 -1169 0
-1144 -1170 0
-1144 -1171 0
-1144 -1172 0
-1144 -1173 0
-1144 -1174 0
-1144 -1175 0
-1144 -1176 0
-1144 -1177 0
-1144 -1178 0
-1144 -1179 0
-1144 -1180 0
-1144 -1181 0
-1144 -1182 0
-1144 -1183 0
-1144 -1184 0
-1144 -1185 0
-1144 -1186 0
-1144 -1187 0
-1144 -1188 0
-1144 -1189 0
-1144 -1190 0
-1144 -1191 0
-1144 -1192 0
-1144 -1193 0
-1144 -1194 0
-1145 -1146 0
-1145 -1147 0
-1145 -1148 0
-1145 -1149 0
-1145 -1150 0
-1145 -1151 0
-1145 -1152 0
-1145 -1153 0
-1145 -1154 0
-1145 -1155 0
-1145 -1156 0
-1145 -1157 0
-1145 -1158 0
-1145 -1159 0
-1145 -1160 0
-1145 -1161 0
-1145 -1162 0
-1145 -1163 0
-1145 -1164 0
-1145 -1165 0
-1145 -1166 0
-1145 -1167 0
-1145 -1168 0
-1145 -1169 0
-1145 -1170 0
-1145 -1171 0
-1145 -1172 0
-1145 -1173 0
-1145 -1174 0
-1145 -1175 0
-1145 -1176 0
-1145 -1177 0
-1145 -1178 0
-1145 -1179 0
-1145 -1180 0
-1145 -1181 0
-1145 -1182 0
-1145 -1183 0
-1145 -1184 0
-1145 -1185 0
-1145 -1186 0
-1145 -1187 0
-1145 -1188 0
-1145 -1189 0
-1145 -1190 0
-1145 -1191 0
-1145 -1192 0
-1145 -1193 0
-1145 -1194 0
-1146 -1147 0
-1146 -1148 0
-1146 -1149 0
-1146 -1150 0
-1146 -1151 0
-1146 -1152 0
-1146 -1153 0
-1146 -1154 0
-1146 -1155 0
-1146 -1156 0
-1146 -1157 0
-1146 -1158 0
-1146 -1159 0
-1146 -1160 0
-1146 -1161 0
-1146 -1162 0
-1146 -1163 0
-1146 -1164 0
-1146 -1165 0
-1146 -1166 0
-1146 -1167 0
-1146 -1168 0
-1146 -1169 0
-1146 -1170 0
-1146 -1171 0
-1146 -1172 0
-1146 -1173 0
-1146 -1174 0
-1146 -1175 0
-1146 -1176 0
-1146 -1177 0
-1146 -1178 0
-1146 -1179 0
-1146 -1180 0
-1146 -1181 0
-1146 -1182 0
-1146 -1183 0
-1146 -1184 0
-1146 -1185 0
-1146 -1186 0
-1146 -1187 0
-1146 -1188 0
-1146 -1189 0
-1146 -1190 0
-1146 -1191 0
-1146 -1192 0
-1146 -1193 0
-1146 -1194 0
-1147 -1148 0
-1147 -1149 0
-1147 -1150 0
-1147 -1151 0
-1147 -1152 0
-1147 -1153 0
-1147 -1154 0
-1147 -1155 0
-1147 -1156 0
-1147 -1157 0
-1147 -1158 0
-1147 -1159 0
-1147 -1160 0
-1147 -1161 0
-1147 -1162 0
-1147 -1163 0
-1147 -1164 0
-1147 -1165 0
-1147 -1166 0
-1147 -1167 0
-1147 -1168 0
-1147 -1169 0
-1147 -1170 0
-1147 -1171 0
-1147 -1172 0
-1147 -1173 0
-1147 -1174 0
-1147 -1175 0
-1147 -1176 0
-1147 -1177 0
-1147 -1178 0
-1147 -1179 0
-1147 -1180 0
-1147 -1181 0
-1147 -1182 0
-1147 -1183 0
-1147 -1184 0
-1147 -1185 0
-1147 -1186 0
-1147 -1187 0
-1147 -1188 0
-1147 -1189 0
-1147 -1190 0
-1147 -1191 0
-1147 -1192 0
-1147 -1193 0
-1147 -1194 0
-1148 -1149 0
-1148 -1150 0
-1148 -1151 0
-1148 -1152 0
-1148 -1153 0
-1148 -1154 0
-1148 -1155 0
-1148 -1156 0
-1148 -1157 0
-1148 -1158 0
-1148 -1159 0
-1148 -1160 0
-1148 -1161 0
-1148 -1162 0
-1148 -1163 0
-1148 -1164 0
-1148 -1165 0
-1148 -1166 0
-1148 -1167 0
-1148 -1168 0
-1148 -1169 0
-1148 -1170 0
-1148 -1171 0
-1148 -1172 0
-1148 -1173 0
-1148 -1174 0
-1148 -1175 0
-1148 -1176 0
-1148 -1177 0
-1148 -1178 0
-1148 -1179 0
-1148 -1180 0
-1148 -1181 0
-1148 -1182 0
-1148 -1183 0
-1148 -1184 0
-1148 -1185 0
-1148 -1186 0
-1148 -1187 0
-1148 -1188 0
-1148 -1189 0
-1148 -1190 0
-1148 -1191 0
-1148 -1192 0
-1148 -1193 0
-1148 -1194 0
-1149 -1150 0
-1149 -1151 0
-1149 -1152 0
-1149 -1153 0
-1149 -1154 0
-1149 -1155 0
-1149 -1156 0
-1149 -1157 0
-1149 -1158 0
-1149 -1159 0
-1149 -1160 0
-1149 -1161 0
-1149 -1162 0
-1149 -1163 0
-1149 -1164 0
-1149 -1165 0
-1149 -1166 0
-1149 -1167 0
-1149 -1168 0
-1149 -1169 0
-1149 -1170 0
-1149 -1171 0
-1149 -1172 0
-1149 -1173 0
-1149 -1174 0
-1149 -1175 0
-1149 -1176 0
-1149 -1177 0
-1149 -1178 0
-1149 -1179 0
-1149 -1180 0
-1149 -1181 0
-1149 -1182 0
-1149 -1183 0
-1149 -1184 0
-1149 -1185 0
-1149 -1186 0
-1149 -1187 0
-1149 -1188 0
-1149 -1189 0
-1149 -1190 0
-1149 -1191 0
-1149 -1192 0
-1149 -1193 0
-1149 -1194 0
-1150 -1151 0
-1150 -1152 0
-1150 -1153 0
-1150 -1154 0
-1150 -1155 0
-1150 -1156 0
-1150 -1157 0
-1150 -1158 0
-1150 -1159 0
-1150 -1160 0
-1150 -1161 0
-1150 -1162 0
-1150 -1163 0
-1150 -1164 0
-1150 -1165 0
-1150 -1166 0
-1150 -1167 0
-1150 -1168 0
-1150 -1169 0
-1150 -1170 0
-1150 -1171 0
-1150 -1172 0
-1150 -1173 0
-1150 -1174 0
-1150 -1175 0
-1150 -1176 0
-1150 -1177 0
-1150 -1178 0
-1150 -1179 0
-1150 -1180 0
-1150 -1181 0
-1150 -1182 0
-1150 -1183 0
-1150 -1184 0
-1150 -1185 0
-1150 -1186 0
-1150 -1187 0
-1150 -1188 0
-1150 -1189 0
-1150 -1190 0
-1150 -1191 0
-1150 -1192 0
-1150 -1193 0
-1150 -1194 0
-1151 -1152 0
-1151 -1153 0
-1151 -1154 0
-1151 -1155 0
-1151 -1156 0
-1151 -1157 0
-1151 -1158 0
-1151 -1159 0
-1151 -1160 0
-1151 -1161 0
-1151 -1162 0
-1151 -1163 0
-1151 -1164 0
-1151 -1165 0
-1151 -1166 0
-1151 -1167 0
-1151 -1168 0
-1151 -1169 0
-1151 -1170 0
-1151 -1171 0
-1151 -1172 0
-1151 -1173 0
-1151 -1174 0
-1151 -1175 0
-1151 -1176 0
-1151 -1177 0
-1151 -1178 0
-1151 -1179 0
-1151 -1180 0
-1151 -1181 0
-1151 -1182 0
-1151 -1183 0
-1151 -1184 0
-1151 -1185 0
-1151 -1186 0
-1151 -1187 0
-1151 -1188 0
-1151 -1189 0
-1151 -1190 0
-1151 -1191 0
-1151 -1192 0
-1151 -1193 0
-1151 -1194 0
-1152 -1153 0
-1152 -1154 0
-1152 -1155 0
-1152 -1156 0
-1152 -1157 0
-1152 -1158 0
-1152 -1159 0
-1152 -1160 0
-1152 -1161 0
-1152 -1162 0
-1152 -1163 0
-1152 -1164 0
-1152 -1165 0
-1152 -1166 0
-1152 -1167 0
-1152 -1168 0
-1152 -1169 0
-1152 -1170 0
-1152 -1171 0
-1152 -1172 0
-1152 -1173 0
-1152 -1174 0
-1152 -1175 0
-1152 -1176 0
-1152 -1177 0
-1152 -1178 0
-1152 -1179 0
-1152 -1180 0
-1152 -1181 0
-1152 -1182 0
-1152 -1183 0
-1152 -1184 0
-1152 -1185 0
-1152 -1186 0
-1152 -1187 0
-1152 -1188 0
-1152 -1189 0
-1152 -1190 0
-1152 -1191 0
-1152 -1192 0
-1152 -1193 0
-1152 -1194 0
-1153 -1154 0
-1153 -1155 0
-1153 -1156 0
-1153 -1157 0
-1153 -1158 0
-1153 -1159 0
-1153 -1160 0
-1153 -1161 0
-1153 -1162 0
-1153 -1163 0
-1153 -1164 0
-1153 -1165 0
-1153 -1166 0
-1153 -1167 0
-1153 -1168 0
-1153 -1169 0
-1153 -1170 0
-1153 -1171 0
-1153 -1172 0
-1153 -1173 0
-1153 -1174 0
-1153 -1175 0
-1153 -1176 0
-1153 -1177 0
-1153 -1178 0
-1153 -1179 0
-1153 -1180 0
-1153 -1181 0
-1153 -1182 0
-1153 -1183 0
-1153 -1184 0
-1153 -1185 0
-1153 -1186 0
-1153 -1187 0
-1153 -1188 0
-1153 -1189 0
-1153 -1190 0
-1153 -1191 0
-1153 -1192 0
-1153 -1193 0
-1153 -1194 0
-1154 -1155 0
-1154 -1156 0
-1154 -1157 0
-1154 -1158 0
-1154 -1159 0
-1154 -1160 0
-1154 -1161 0
-1154 -1162 0
-1154 -1163 0
-1154 -1164 0
-1154 -1165 0
-1154 -1166 0
-1154 -1167 0
-1154 -1168 0
-1154 -1169 0
-1154 -1170 0
-1154 -1171 0
-1154 -1172 0
-1154 -1173 0
-1154 -1174 0
-1154 -1175 0
-1154 -1176 0
-1154 -1177 0
-1154 -1178 0
-1154 -1179 0
-1154 -1180 0
-1154 -1181 0
-1154 -1182 0
-1154 -1183 0
-1154 -1184 0
-1154 -1185 0
-1154 -1186 0
-1154 -1187 0
-1154 -1188 0
-1154 -1189 0
-1154 -1190 0
-1154 -1191 0
-1154 -1192 0
-1154 -1193 0
-1154 -1194 0
-1155 -1156 0
-1155 -1157 0
-1155 -1158 0
-1155 -1159 0
-1155 -1160 0
-1155 -1161 0
-1155 -1162 0
-1155 -1163 0
-1155 -1164 0
-1155 -1165 0
-1155 -1166 0
-1155 -1167 0
-1155 -1168 0
-1155 -1169 0
-1155 -1170 0
-1155 -1171 0
-1155 -1172 0
-1155 -1173 0
-1155 -1174 0
-1155 -1175 0
-1155 -1176 0
-1155 -1177 0
-1155 -1178 0
-1155 -1179 0
-1155 -1180 0
-1155 -1181 0
-1155 -1182 0
-1155 -1183 0
-1155 -1184 0
-1155 -1185 0
-1155 -1186 0
-1155 -1187 0
-1155 -1188 0
-1155 -1189 0
-1155 -1190 0
-1155 -1191 0
-1155 -1192 0
-1155 -1193 0
-1155 -1194 0
-1156 -1157 0
-1156 -1158 0
-1156 -1159 0
-1156 -1160 0
-1156 -1161 0
-1156 -1162 0
-1156 -1163 0
-1156 -1164 0
-1156 -1165 0
-1156 -1166 0
-1156 -1167 0
-1156 -1168 0
-1156 -1169 0
-1156 -1170 0
-1156 -1171 0
-1156 -1172 0
-1156 -1173 0
-1156 -1174 0
-1156 -1175 0
-1156 -1176 0
-1156 -1177 0
-1156 -1178 0
-1156 -1179 0
-1156 -1180 0
-1156 -1181 0
-1156 -1182 0
-1156 -1183 0
-1156 -1184 0
-1156 -1185 0
-1156 -1186 0
-1156 -1187 0
-1156 -1188 0
-1156 -1189 0
-1156 -1190 0
-1156 -1191 0
-1156 -1192 0
-1156 -1193 0
-1156 -1194 0
-1157 -1158 0
-1157 -1159 0
-1157 -1160 0
-1157 -1161 0
-1157 -1162 0
-1157 -1163 0
-1157 -1164 0
-1157 -1165 0
-1157 -1166 0
-1157 -1167 0
-1157 -1168 0
-1157 -1169 0
-1157 -1170 0
-1157 -1171 0
-1157 -1172 0
-1157 -1173 0
-1157 -1174 0
-1157 -1175 0
-1157 -1176 0
-1157 -1177 0
-1157 -1178 0
-1157 -1179 0
-1157 -1180 0
-1157 -1181 0
-1157 -1182 0
-1157 -1183 0
-1157 -1184 0
-1157 -1185 0
-1157 -1186 0
-1157 -1187 0
-1157 -1188 0
-1157 -1189 0
-1157 -1190 0
-1157 -1191 0
-1157 -1192 0
-1157 -1193 0
-1157 -1194 0
-1158 -1159 0
-1158 -1160 0
-1158 -1161 0
-1158 -1162 0
-1158 -1163 0
-1158 -1164 0
-1158 -1165 0
-1158 -1166 0
-1158 -1167 0
-1158 -1168 0
-1158 -1169 0
-1158 -1170 0
-1158 -1171 0
-1158 -1172 0
-1158 -1173 0
-1158 -1174 0
-1158 -1175 0
-1158 -1176 0
-1158 -1177 0
-1158 -1178 0
-1158 -1179 0
-1158 -1180 0
-1158 -1181 0
-1158 -1182 0
-1158 -1183 0
-1158 -1184 0
-1158 -1185 0
-1158 -1186 0
-1158 -1187 0
-1158 -1188 0
-1158 -1189 0
-1158 -1190 0
-1158 -1191 0
-1158 -1192 0
-1158 -1193 0
-1158 -1194 0
-1159 -1160 0
-1159 -1161 0
-1159 -1162 0
-1159 -1163 0
-1159 -1164 0
-1159 -1165 0
-1159 -1166 0
-1159 -1167 0
-1159 -1168 0
-1159 -1169 0
-1159 -1170 0
-1159 -1171 0
-1159 -1172 0
-1159 -1173 0
-1159 -1174 0
-1159 -1175 0
-1159 -1176 0
-1159 -1177 0
-1159 -1178 0
-1159 -1179 0
-1159 -1180 0
-1159 -1181 0
-1159 -1182 0
-1159 -1183 0
-1159 -1184 0
-1159 -1185 0
-1159 -1186 0
-1159 -1187 0
-1159 -1188 0
-1159 -1189 0
-1159 -1190 0
-1159 -1191 0
-1159 -1192 0
-1159 -1193 0
-1159 -1194 0
-1160 -1161 0
-1160 -1162 0
-1160 -1163 0
-1160 -1164 0
-1160 -1165 0
-1160 -1166 0
-1160 -1167 0
-1160 -1168 0
-1160 -1169 0
-1160 -1170 0
-1160 -1171 0
-1160 -1172 0
-1160 -1173 0
-1160 -1174 0
-1160 -1175 0
-1160 -1176 0
-1160 -1177 0
-1160 -1178 0
-1160 -1179 0
-1160 -1180 0
-1160 -1181 0
-1160 -1182 0
-1160 -1183 0
-1160 -1184 0
-1160 -1185 0
-1160 -1186 0
-1160 -1187 0
-1160 -1188 0
-1160 -1189 0
-1160 -1190 0
-1160 -1191 0
-1160 -1192 0
-1160 -1193 0
-1160 -1194 0
-1161 -1162 0
-1161 -1163 0
-1161 -1164 0
-1161 -1165 0
-1161 -1166 0
-1161 -1167 0
-1161 -1168 0
-1161 -1169 0
-1161 -1170 0
-1161 -1171 0
-1161 -1172 0
-1161 -1173 0
-1161 -1174 0
-1161 -1175 0
-1161 -1176 0
-1161 -1177 0
-1161 -1178 0
-1161 -1179 0
-1161 -1180 0
-1161 -1181 0
-1161 -1182 0
-1161 -1183 0
-1161 -1184 0
-1161 -1185 0
-1161 -1186 0
-1161 -1187 0
-1161 -1188 0
-1161 -1189 0
-1161 -1190 0
-1161 -1191 0
-1161 -1192 0
-1161 -1193 0
-1161 -1194 0
-1162 -1163 0
-1162 -1164 0
-1162 -1165 0
-1162 -1166 0
-1162 -1167 0
-1162 -1168 0
-1162 -1169 0
-1162 -1170 0
-1162 -1171 0
-1162 -1172 0
-1162 -1173 0
-1162 -1174 0
-1162 -1175 0
-1162 -1176 0
-1162 -1177 0
-1162 -1178 0
-1162 -1179 0
-1162 -1180 0
-1162 -1181 0
-1162 -1182 0
-1162 -1183 0
-1162 -1184 0
-1162 -1185 0
-1162 -1186 0
-1162 -1187 0
-1162 -1188 0
-1162 -1189 0
-1162 -1190 0
-1162 -1191 0
-1162 -1192 0
-1162 -1193 0
-1162 -1194 0
-1163 -1164 0
-1163 -1165 0
-1163 -1166 0
-1163 -1167 0
-1163 -1168 0
-1163 -1169 0
-1163 -1170 0
-1163 -1171 0
-1163 -1172 0
-1163 -1173 0
-1163 -1174 0
-1163 -1175 0
-1163 -1176 0
-1163 -1177 0
-1163 -1178 0
-1163 -1179 0
-1163 -1180 0
-1163 -1181 0
-1163 -1182 0
-1163 -1183 0
-1163 -1184 0
-1163 -1185 0
-1163 -1186 0
-1163 -1187 0
-1163 -1188 0
-1163 -1189 0
-1163 -1190 0
-1163 -1191 0
-1163 -1192 0
-1163 -1193 0
-1163 -1194 0
-1164 -1165 0
-1164 -1166 0
-1164 -1167 0
-1164 -1168 0
-1164 -1169 0
-1164 -1170 0
-1164 -1171 0
-1164 -1172 0
-1164 -1173 0
-1164 -1174 0
-1164 -1175 0
-1164 -1176 0
-1164 -1177 0
-1164 -1178 0
-1164 -1179 0
-1164 -1180 0
-1164 -1181 0
-1164 -1182 0
-1164 -1183 0
-1164 -1184 0
-1164 -1185 0
-1164 -1186 0
-1164 -1187 0
-1164 -1188 0
-1164 -1189 0
-1164 -1190 0
-1164 -1191 0
-1164 -1192 0
-1164 -1193 0
-1164 -1194 0
-1165 -1166 0
-1165 -1167 0
-1165 -1168 0
-1165 -1169 0
-1165 -1170 0
-1165 -1171 0
-1165 -1172 0
-1165 -1173 0
-1165 -1174 0
-1165 -1175 0
-1165 -1176 0
-1165 -1177 0
-1165 -1178 0
-1165 -1179 0
-1165 -1180 0
-1165 -1181 0
-1165 -1182 0
-1165 -1183 0
-1165 -1184 0
-1165 -1185 0
-1165 -1186 0
-1165 -1187 0
-1165 -1188 0
-1165 -1189 0
-1165 -1190 0
-1165 -1191 0
-1165 -1192 0
-1165 -1193 0
-1165 -1194 0
-1166 -1167 0
-1166 -1168 0
-1166 -1169 0
-1166 -1170 0
-1166 -1171 0
-1166 -1172 0
-1166 -1173 0
-1166 -1174 0
-1166 -1175 0
-1166 -1176 0
-1166 -1177 0
-1166 -1178 0
-1166 -1179 0
-1166 -1180 0
-1166 -1181 0
-1166 -1182 0
-1166 -1183 0
-1166 -1184 0
-1166 -1185 0
-1166 -1186 0
-1166 -1187 0
-1166 -1188 0
-1166 -1189 0
-1166 -1190 0
-1166 -1191 0
-1166 -1192 0
-1166 -1193 0
-1166 -1194 0
-1167 -1168 0
-1167 -1169 0
-1167 -1170 0
-1167 -1171 0
-1167 -1172 0
-1167 -1173 0
-1167 -1174 0
-1167 -1175 0
-1167 -1176 0
-1167 -1177 0
-1167 -1178 0
-1167 -1179 0
-1167 -1180 0
-1167 -1181 0
-1167 -1182 0
-1167 -1183 0
-1167 -1184 0
-1167 -1185 0
-1167 -1186 0
-1167 -1187 0
-1167 -1188 0
-1167 -1189 0
-1167 -1190 0
-1167 -1191 0
-1167 -1192 0
-1167 -1193 0
-1167 -1194 0
-1168 -1169 0
-1168 -1170 0
-1168 -1171 0
-1168 -1172 0
-1168 -1173 0
-1168 -1174 0
-1168 -1175 0
-1168 -1176 0
-1168 -1177 0
-1168 -1178 0
-1168 -1179 0
-1168 -1180 0
-1168 -1181 0
-1168 -1182 0
-1168 -1183 0
-1168 -1184 0
-1168 -1185 0
-1168 -1186 0
-1168 -1187 0
-1168 -1188 0
-1168 -1189 0
-1168 -1190 0
-1168 -1191 0
-1168 -1192 0
-1168 -1193 0
-1168 -1194 0
-1169 -1170 0
-1169 -1171 0
-1169 -1172 0
-1169 -1173 0
-1169 -1174 0
-1169 -1175 0
-1169 -1176 0
-1169 -1177 0
-1169 -1178 0
-1169 -1179 0
-1169 -1180 0
-1169 -1181 0
-1169 -1182 0
-1169 -1183 0
-1169 -1184 0
-1169 -1185 0
-1169 -1186 0
-1169 -1187 0
-1169 -1188 0
-1169 -1189 0
-1169 -1190 0
-1169 -1191 0
-1169 -1192 0
-1169 -1193 0
-1169 -1194 0
-1170 -1171 0
-1170 -1172 0
-1170 -1173 0
-1170 -1174 0
-1170 -1175 0
-1170 -1176 0
-1170 -1177 0
-1170 -1178 0
-1170 -1179 0
-1170 -1180 0
-1170 -1181 0
-1170 -1182 0
-1170 -1183 0
-1170 -1184 0
-1170 -1185 0
-1170 -1186 0
-1170 -1187 0
-1170 -1188 0
-1170 -1189 0
-1170 -1190 0
-1170 -1191 0
-1170 -1192 0
-1170 -1193 0
-1170 -1194 0
-1171 -1172 0
-1171 -1173 0
-1171 -1174 0
-1171 -1175 0
-1171 -1176 0
-1171 -1177 0
-1171 -1178 0
-1171 -1179 0
-1171 -1180 0
-1171 -1181 0
-1171 -1182 0
-1171 -1183 0
-1171 -1184 0
-1171 -1185 0
-1171 -1186 0
-1171 -1187 0
-1171 -1188 0
-1171 -1189 0
-1171 -1190 0
-1171 -1191 0
-1171 -1192 0
-1171 -1193 0
-1171 -1194 0
-1172 -1173 0
-1172 -1174 0
-1172 -1175 0
-1172 -1176 0
-1172 -1177 0
-1172 -1178 0
-1172 -1179 0
-1172 -1180 0
-1172 -1181 0
-1172 -1182 0
-1172 -1183 0
-1172 -1184 0
-1172 -1185 0
-1172 -1186 0
-1172 -1187 0
-1172 -1188 0
-1172 -1189 0
-1172 -1190 0
-1172 -1191 0
-1172 -1192 0
-1172 -1193 0
-1172 -1194 0
-1173 -1174 0
-1173 -1175 0
-1173 -1176 0
-1173 -1177 0
-1173 -1178 0
-1173 -1179 0
-1173 -1180 0
-1173 -1181 0
-1173 -1182 0
-1173 -1183 0
-1173 -1184 0
-1173 -1185 0
-1173 -1186 0
-1173 -1187 0
-1173 -1188 0
-1173 -1189 0
-1173 -1190 0
-1173 -1191 0
-1173 -1192 0
-1173 -1193 0
-1173 -1194 0
-1174 -1175 0
-1174 -1176 0
-1174 -1177 0
-1174 -1178 0
-1174 -1179 0
-1174 -1180 0
-1174 -1181 0
-1174 -1182 0
-1174 -1183 0
-1174 -1184 0
-1174 -1185 0
-1174 -1186 0
-1174 -1187 0
-1174 -1188 0
-1174 -1189 0
-1174 -1190 0
-1174 -1191 0
-1174 -1192 0
-1174 -1193 0
-1174 -1194 0
-1175 -1176 0
-1175 -1177 0
-1175 -1178 0
-1175 -1179 0
-1175 -1180 0
-1175 -1181 0
-1175 -1182 0
-1175 -1183 0
-1175 -1184 0
-1175 -1185 0
-1175 -1186 0
-1175 -1187 0
-1175 -1188 0
-1175 -1189 0
-1175 -1190 0
-1175 -1191 0
-1175 -1192 0
-1175 -1193 0
-1175 -1194 0
-1176 -1177 0
-1176 -1178 0
-1176 -1179 0
-1176 -1180 0
-1176 -1181 0
-1176 -1182 0
-1176 -1183 0
-1176 -1184 0
-1176 -1185 0
-1176 -1186 0
-1176 -1187 0
-1176 -1188 0
-1176 -1189 0
-1176 -1190 0
-1176 -1191 0
-1176 -1192 0
-1176 -1193 0
-1176 -1194 0
-1177 -1178 0
-1177 -1179 0
-1177 -1180 0
-1177 -1181 0
-1177 -1182 0
-1177 -1183 0
-1177 -1184 0
-1177 -1185 0
-1177 -1186 0
-1177 -1187 0
-1177 -1188 0
-1177 -1189 0
-1177 -1190 0
-1177 -1191 0
-1177 -1192 0
-1177 -1193 0
-1177 -1194 0
-1178 -1179 0
-1178 -1180 0
-1178 -1181 0
-1178 -1182 0
-1178 -1183 0
-1178 -1184 0
-1178 -1185 0
-1178 -1186 0
-1178 -1187 0
-1178 -1188 0
-1178 -1189 0
-1178 -1190 0
-1178 -1191 0
-1178 -1192 0
-1178 -1193 0
-1178 -1194 0
-1179 -1180 0
-1179 -1181 0
-1179 -1182 0
-1179 -1183 0
-1179 -1184 0
-1179 -1185 0
-1179 -1186 0
-1179 -1187 0
-1179 -1188 0
-1179 -1189 0
-1179 -1190 0
-1179 -1191 0
-1179 -1192 0
-1179 -1193 0
-1179 -1194 0
-1180 -1181 0
-1180 -1182 0
-1180 -1183 0
-1180 -1184 0
-1180 -1185 0
-1180 -1186 0
-1180 -1187 0
-1180 -1188 0
-1180 -1189 0
-1180 -1190 0
-1180 -1191 0
-1180 -1192 0
-1180 -1193 0
-1180 -1194 0
-1181 -1182 0
-1181 -1183 0
-1181 -1184 0
-1181 -1185 0
-1181 -1186 0
-1181 -1187 0
-1181 -1188 0
-1181 -1189 0
-1181 -1190 0
-1181 -1191 0
-1181 -1192 0
-1181 -1193 0
-1181 -1194 0
-1182 -1183 0
-1182 -1184 0
-1182 -1185 0
-1182 -1186 0
-1182 -1187 0
-1182 -1188 0
-1182 -1189 0
-1182 -1190 0
-1182 -1191 0
-1182 -1192 0
-1182 -1193 0
-1182 -1194 0
-1183 -1184 0
-1183 -1185 0
-1183 -1186 0
-1183 -1187 0
-1183 -1188 0
-1183 -1189 0
-1183 -1190 0
-1183 -1191 0
-1183 -1192 0
-1183 -1193 0
-1183 -1194 0
-1184 -1185 0
-1184 -1186 0
-1184 -1187 0
-1184 -1188 0
-1184 -1189 0
-1184 -1190 0
-1184 -1191 0
-1184 -1192 0
-1184 -1193 0
-1184 -1194 0
-1185 -1186 0
-1185 -1187 0
-1185 -1188 0
-1185 -1189 0
-1185 -1190 0
-1185 -1191 0
-1185 -1192 0
-1185 -1193 0
-1185 -1194 0
-1186 -1187 0
-1186 -1188 0
-1186 -1189 0
-1186 -1190 0
-1186 -1191 0
-1186 -1192 0
-1186 -1193 0
-1186 -1194 0
-1187 -1188 0
-1187 -1189 0
-1187 -1190 0
-1187 -1191 0
-1187 -1192 0
-1187 -1193 0
-1187 -1194 0
-1188 -1189 0
-1188 -1190 0
-1188 -1191 0
-1188 -1192 0
-1188 -1193 0
-1188 -1194 0
-1189 -1190 0
-1189 -1191 0
-1189 -1192 0
-1189 -1193 0
-1189 -1194 0
-1190 -1191 0
-1190 -1192 0
-1190 -1193 0
-1190 -1194 0
-1191 -1192 0
-1191 -1193 0
-1191 -1194 0
-1192 -1193 0
-1192 -1194 0
-1193 -1194 0
-1111 38 0
-1111 186 0
-1111 -8 0
-1111 -9 0
-1111 -10 0
-1111 -11 0
-1111 -12 0
-1111 -26 208 0
-1111 -26 -91 0
-1111 -26 -115 0
-1111 -26 -139 0
-1111 -26 -1 -23 0
-1111 -27 209 0
-1111 -27 -92 0
-1111 -27 -116 0
-1111 -27 -140 0
-1111 -27 -1 -24 0
-1111 -28 210 0
-1111 -28 -93 0
-1111 -28 -117 0
-1111 -28 -141 0
-1111 -28 -1 -25 0
-1111 -29 0
-1112 38 0
-1112 187 0
-1112 -7 0
-1112 -9 0
-1112 -10 0
-1112 -11 0
-1112 -12 0
-1112 -26 208 0
-1112 -26 -95 0
-1112 -26 -119 0
-1112 -26 -143 0
-1112 -26 -2 -23 0
-1112 -27 209 0
-1112 -27 -96 0
-1112 -27 -120 0
-1112 -27 -144 0
-1112 -27 -2 -24 0
-1112 -28 210 0
-1112 -28 -97 0
-1112 -28 -121 0
-1112 -28 -145 0
-1112 -28 -2 -25 0
-1112 -29 0
-1113 38 0
-1113 188 0
-1113 -7 0
-1113 -8 0
-1113 -10 0
-1113 -11 0
-1113 -12 0
-1113 -26 208 0
-1113 -26 -99 0
-1113 -26 -123 0
-1113 -26 -147 0
-1113 -26 -3 -23 0
-1113 -27 209 0
-1113 -27 -100 0
-1113 -27 -124 0
-1113 -27 -148 0
-1113 -27 -3 -24 0
-1113 -28 210 0
-1113 -28 -101 0
-1113 -28 -125 0
-1113 -28 -149 0
-1113 -28 -3 -25 0
-1113 -29 0
-1114 38 0
-1114 189 0
-1114 -7 0
-1114 -8 0
-1114 -9 0
-1114 -11 0
-1114 -12 0
-1114 -26 208 0
-1114 -26 -103 0
-1114 -26 -127 0
-1114 -26 -151 0
-1114 -26 -4 -23 0
-1114 -27 209 0
-1114 -27 -104 0
-1114 -27 -128 0
-1114 -27 -152 0
-1114 -27 -4 -24 0
-1114 -28 210 0
-1114 -28 -105 0
-1114 -28 -129 0
-1114 -28 -153 0
-1114 -28 -4 -25 0
-1114 -29 0
-1115 38 0
-1115 190 0
-1115 -7 0
-1115 -8 0
-1115 -9 0
-1115 -10 0
-1115 -12 0
-1115 -26 208 0
-1115 -26 -107 0
-1115 -26 -131 0
-1115 -26 -155 0
-1115 -26 -5 -23 0
-1115 -27 209 0
-1115 -27 -108 0
-1115 -27 -132 0
-1115 -27 -156 0
-1115 -27 -5 -24 0
-1115 -28 210 0
-1115 -28 -109 0
-1115 -28 -133 0
-1115 -28 -157 0
-1115 -28 -5 -25 0
-1115 -29 0
-1116 38 0
-1116 191 0
-1116 -7 0
-1116 -8 0
-1116 -9 0
-1116 -10 0
-1116 -11 0
-1116 -26 208 0
-1116 -26 -111 0
-1116 -26 -135 0
-1116 -26 -159 0
-1116 -26 -6 -23 0
-1116 -27 209 0
-1116 -27 -112 0
-1116 -27 -136 0
-1116 -27 -160 0
-1116 -27 -6 -24 0
-1116 -28 210 0
-1116 -28 -113 0
-1116 -28 -137 0
-1116 -28 -161 0
-1116 -28 -6 -25 0
-1116 -29 0
-1117 38 0
-1117 186 0
-1117 -14 0
-1117 -15 0
-1117 -16 0
-1117 -17 0
-1117 -30 208 0
-1117 -30 -91 0
-1117 -30 -115 0
-1117 -30 -139 0
-1117 -30 -1 -23 0
-1117 -31 209 0
-1117 -31 -92 0
-1117 -31 -116 0
-1117 -31 -140 0
-1117 -31 -1 -24 0
-1117 -32 210 0
-1117 -32 -93 0
-1117 -32 -117 0
-1117 -32 -141 0
-1117 -32 -1 -25 0
-1117 -33 0
-1118 38 0
-1118 187 0
-1118 -15 0
-1118 -16 0
-1118 -17 0
-1118 -30 208 0
-1118 -30 -95 0
-1118 -30 -119 0
-1118 -30 -143 0
-1118 -30 -2 -23 0
-1118 -31 209 0
-1118 -31 -96 0
-1118 -31 -120 0
-1118 -31 -144 0
-1118 -31 -2 -24 0
-1118 -32 210 0
-1118 -32 -97 0
-1118 -32 -121 0
-1118 -32 -145 0
-1118 -32 -2 -25 0
-1118 -33 0
-1119 38 0
-1119 188 0
-1119 -13 0
-1119 -16 0
-1119 -17 0
-1119 -30 208 0
-1119 -30 -99 0
-1119 -30 -123 0
-1119 -30 -147 0
-1119 -30 -3 -23 0
-1119 -31 209 0
-1119 -31 -100 0
-1119 -31 -124 0
-1119 -31 -148 0
-1119 -31 -3 -24 0
-1119 -32 210 0
-1119 -32 -101 0
-1119 -32 -125 0
-1119 -32 -149 0
-1119 -32 -3 -25 0
-1119 -33 0
-1120 38 0
-1120 189 0
-1120 -13 0
-1120 -14 0
-1120 -17 0
-1120 -30 208 0
-1120 -30 -103 0
-1120 -30 -127 0
-1120 -30 -151 0
-1120 -30 -4 -23 0
-1120 -31 209 0
-1120 -31 -104 0
-1120 -31 -128 0
-1120 -31 -152 0
-1120 -31 -4 -24 0
-1120 -32 210 0
-1120 -32 -105 0
-1120 -32 -129 0
-1120 -32 -153 0
-1120 -32 -4 -25 0
-1120 -33 0
-1121 38 0
-1121 190 0
-1121 -13 0
-1121 -14 0
-1121 -15 0
-1121 -30 208 0
-1121 -30 -107 0
-1121 -30 -131 0
-1121 -30 -155 0
-1121 -30 -5 -23 0
-1121 -31 209 0
-1121 -31 -108 0
-1121 -31 -132 0
-1121 -31 -156 0
-1121 -31 -5 -24 0
-1121 -32 210 0
-1121 -32 -109 0
-1121 -32 -133 0
-1121 -32 -157 0
-1121 -32 -5 -25 0
-1121 -33 0
-1122 38 0
-1122 191 0
-1122 -13 0
-1122 -14 0
-1122 -15 0
-1122 -16 0
-1122 -30 208 0
-1122 -30 -111 0
-1122 -30 -135 0
-1122 -30 -159 0
-1122 -30 -6 -23 0
-1122 -31 209 0
-1122 -31 -112 0
-1122 -31 -136 0
-1122 -31 -160 0
-1122 -31 -6 -24 0
-1122 -32 210 0
-1122 -32 -113 0
-1122 -32 -137 0
-1122 -32 -161 0
-1122 -32 -6 -25 0
-1122 -33 0
-1123 38 0
-1123 186 0
-1123 -19 0
-1123 -20 0
-1123 -21 0
-1123 -34 208 0
-1123 -34 -91 0
-1123 -34 -115 0
-1123 -34 -139 0
-1123 -34 -1 -23 0
-1123 -35 209 0
-1123 -35 -92 0
-1123 -35 -116 0
-1123 -35 -140 0
-1123 -35 -1 -24 0
-1123 -36 210 0
-1123 -36 -93 0
-1123 -36 -117 0
-1123 -36 -141 0
-1123 -36 -1 -25 0
-1123 -37 0
-1124 38 0
-1124 187 0
-1124 -20 0
-1124 -21 0
-1124 -34 208 0
-1124 -34 -95 0
-1124 -34 -119 0
-1124 -34 -143 0
-1124 -34 -2 -23 0
-1124 -35 209 0
-1124 -35 -96 0
-1124 -35 -120 0
-1124 -35 -144 0
-1124 -35 -2 -24 0
-1124 -36 210 0
-1124 -36 -97 0
-1124 -36 -121 0
-1124 -36 -145 0
-1124 -36 -2 -25 0
-1124 -37 0
-1125 38 0
-1125 188 0
-1125 -21 0
-1125 -34 208 0
-1125 -34 -99 0
-1125 -34 -123 0
-1125 -34 -147 0
-1125 -34 -3 -23 0
-1125 -35 209 0
-1125 -35 -100 0
-1125 -35 -124 0
-1125 -35 -148 0
-1125 -35 -3 -24 0
-1125 -36 210 0
-1125 -36 -101 0
-1125 -36 -125 0
-1125 -36 -149 0
-1125 -36 -3 -25 0
-1125 -37 0
-1126 38 0
-1126 189 0
-1126 -18 0
-1126 -34 208 0
-1126 -34 -103 0
-1126 -34 -127 0
-1126 -34 -151 0
-1126 -34 -4 -23 0
-1126 -35 209 0
-1126 -35 -104 0
-1126 -35 -128 0
-1126 -35 -152 0
-1126 -35 -4 -24 0
-1126 -36 210 0
-1126 -36 -105 0
-1126 -36 -129 0
-1126 -36 -153 0
-1126 -36 -4 -25 0
-1126 -37 0
-1127 38 0
-1127 190 0
-1127 -18 0
-1127 -19 0
-1127 -34 208 0
-1127 -34 -107 0
-1127 -34 -131 0
-1127 -34 -155 0
-1127 -34 -5 -23 0
-1127 -35 209 0
-1127 -35 -108 0
-1127 -35 -132 0
-1127 -35 -156 0
-1127 -35 -5 -24 0
-1127 -36 210 0
-1127 -36 -109 0
-1127 -36 -133 0
-1127 -36 -157 0
-1127 -36 -5 -25 0
-1127 -37 0
-1128 38 0
-1128 191 0
-1128 -18 0
-1128 -19 0
-1128 -20 0
-1128 -34 208 0
-1128 -34 -111 0
-1128 -34 -135 0
-1128 -34 -159 0
-1128 -34 -6 -23 0
-1128 -35 209 0
-1128 -35 -112 0
-1128 -35 -136 0
-1128 -35 -160 0
-1128 -35 -6 -24 0
-1128 -36 210 0
-1128 -36 -113 0
-1128 -36 -137 0
-1128 -36 -161 0
-1128 -36 -6 -25 0
-1128 -37 0
-1129 38 0
-1129 186 0
-1129 207 0
-1129 -90 0
-1129 -114 0
-1129 -138 0
-1129 -1 -22 0
-1130 38 0
-1130 187 0
-1130 207 0
-1130 -94 0
-1130 -118 0
-1130 -142 0
-1130 -2 -22 0
-1131 38 0
-1131 188 0
-1131 207 0
-1131 -98 0
-1131 -122 0
-1131 -146 0
-1131 -3 -22 0
-1132 38 0
-1132 189 0
-1132 207 0
-1132 -102 0
-1132 -126 0
-1132 -150 0
-1132 -4 -22 0
-1133 38 0
-1133 190 0
-1133 207 0
-1133 -106 0
-1133 -130 0
-1133 -154 0
-1133 -5 -22 0
-1134 38 0
-1134 191 0
-1134 207 0
-1134 -110 0
-1134 -134 0
-1134 -158 0
-1134 -6 -22 0
-1135 39 0
-1135 192 0
-1135 -2 0
-1135 -3 0
-1135 -4 0
-1135 -5 0
-1135 -6 0
-1135 -22 212 0
-1135 -22 -67 0
-1135 -22 -115 0
-1135 -22 -139 0
-1135 -22 -7 -27 0
-1135 -23 213 0
-1135 -23 -68 0
-1135 -23 -116 0
-1135 -23 -140 0
-1135 -23 -7 -28 0
-1135 -24 214 0
-1135 -24 -69 0
-1135 -24 -117 0
-1135 -24 -141 0
-1135 -24 -7 -29 0
-1135 -25 0
-1136 39 0
-1136 193 0
-1136 -1 0
-1136 -3 0
-1136 -4 0
-1136 -5 0
-1136 -6 0
-1136 -22 212 0
-1136 -22 -71 0
-1136 -22 -119 0
-1136 -22 -143 0
-1136 -22 -8 -27 0
-1136 -23 213 0
-1136 -23 -72 0
-1136 -23 -120 0
-1136 -23 -144 0
-1136 -23 -8 -28 0
-1136 -24 214 0
-1136 -24 -73 0
-1136 -24 -121 0
-1136 -24 -145 0
-1136 -24 -8 -29 0
-1136 -25 0
-1137 39 0
-1137 194 0
-1137 -1 0
-1137 -2 0
-1137 -4 0
-1137 -5 0
-1137 -6 0
-1137 -22 212 0
-1137 -22 -75 0
-1137 -22 -123 0
-1137 -22 -147 0
-1137 -22 -9 -27 0
-1137 -23 213 0
-1137 -23 -76 0
-1137 -23 -124 0
-1137 -23 -148 0
-1137 -23 -9 -28 0
-1137 -24 214 0
-1137 -24 -77 0
-1137 -24 -125 0
-1137 -24 -149 0
-1137 -24 -9 -29 0
-1137 -25 0
-1138 39 0
-1138 195 0
-1138 -1 0
-1138 -2 0
-1138 -3 0
-1138 -5 0
-1138 -6 0
-1138 -22 212 0
-1138 -22 -79 0
-1138 -22 -127 0
-1138 -22 -151 0
-1138 -22 -10 -27 0
-1138 -23 213 0
-1138 -23 -80 0
-1138 -23 -128 0
-1138 -23 -152 0
-1138 -23 -10 -28 0
-1138 -24 214 0
-1138 -24 -81 0
-1138 -24 -129 0
-1138 -24 -153 0
-1138 -24 -10 -29 0
-1138 -25 0
-1139 39 0
-1139 196 0
-1139 -1 0
-1139 -2 0
-1139 -3 0
-1139 -4 0
-1139 -6 0
-1139 -22 212 0
-1139 -22 -83 0
-1139 -22 -131 0
-1139 -22 -155 0
-1139 -22 -11 -27 0
-1139 -23 213 0
-1139 -23 -84 0
-1139 -23 -132 0
-1139 -23 -156 0
-1139 -23 -11 -28 0
-1139 -24 214 0
-1139 -24 -85 0
-1139 -24 -133 0
-1139 -24 -157 0
-1139 -24 -11 -29 0
-1139 -25 0
-1140 39 0
-1140 197 0
-1140 -1 0
-1140 -2 0
-1140 -3 0
-1140 -4 0
-1140 -5 0
-1140 -22 212 0
-1140 -22 -87 0
-1140 -22 -135 0
-1140 -22 -159 0
-1140 -22 -12 -27 0
-1140 -23 213 0
-1140 -23 -88 0
-1140 -23 -136 0
-1140 -23 -160 0
-1140 -23 -12 -28 0
-1140 -24 214 0
-1140 -24 -89 0
-1140 -24 -137 0
-1140 -24 -161 0
-1140 -24 -12 -29 0
-1140 -25 0
-1141 39 0
-1141 192 0
-1141 -14 0
-1141 -15 0
-1141 -16 0
-1141 -17 0
-1141 -30 212 0
-1141 -30 -67 0
-1141 -30 -115 0
-1141 -30 -139 0
-1141 -30 -7 -27 0
-1141 -31 213 0
-1141 -31 -68 0
-1141 -31 -116 0
-1141 -31 -140 0
-1141 -31 -7 -28 0
-1141 -32 214 0
-1141 -32 -69 0
-1141 -32 -117 0
-1141 -32 -141 0
-1141 -32 -7 -29 0
-1141 -33 0
-1142 39 0
-1142 193 0
-1142 -15 0
-1142 -16 0
-1142 -17 0
-1142 -30 212 0
-1142 -30 -71 0
-1142 -30 -119 0
-1142 -30 -143 0
-1142 -30 -8 -27 0
-1142 -31 213 0
-1142 -31 -72 0
-1142 -31 -120 0
-1142 -31 -144 0
-1142 -31 -8 -28 0
-1142 -32 214 0
-1142 -32 -73 0
-1142 -32 -121 0
-1142 -32 -145 0
-1142 -32 -8 -29 0
-1142 -33 0
-1143 39 0
-1143 194 0
-1143 -13 0
-1143 -16 0
-1143 -17 0
-1143 -30 212 0
-1143 -30 -75 0
-1143 -30 -123 0
-1143 -30 -147 0
-1143 -30 -9 -27 0
-1143 -31 213 0
-1143 -31 -76 0
-1143 -31 -124 0
-1143 -31 -148 0
-1143 -31 -9 -28 0
-1143 -32 214 0
-1143 -32 -77 0
-1143 -32 -125 0
-1143 -32 -149 0
-1143 -32 -9 -29 0
-1143 -33 0
-1144 39 0
-1144 195 0
-1144 -13 0
-1144 -14 0
-1144 -17 0
-1144 -30 212 0
-1144 -30 -79 0
-1144 -30 -127 0
-1144 -30 -151 0
-1144 -30 -10 -27 0
-1144 -31 213 0
-1144 -31 -80 0
-1144 -31 -128 0
-1144 -31 -152 0
-1144 -31 -10 -28 0
-1144 -32 214 0
-1144 -32 -81 0
-1144 -32 -129 0
-1144 -32 -153 0
-1144 -32 -10 -29 0
-1144 -33 0
-1145 39 0
-1145 196 0
-1145 -13 0
-1145 -14 0
-1145 -15 0
-1145 -30 212 0
-1145 -30 -83 0
-1145 -30 -131 0
-1145 -30 -155 0
-1145 -30 -11 -27 0
-1145 -31 213 0
-1145 -31 -84 0
-1145 -31 -132 0
-1145 -31 -156 0
-1145 -31 -11 -28 0
-1145 -32 214 0
-1145 -32 -85 0
-1145 -32 -133 0
-1145 -32 -157 0
-1145 -32 -11 -29 0
-1145 -33 0
-1146 39 0
-1146 197 0
-1146 -13 0
-1146 -14 0
-1146 -15 0
-1146 -16 0
-1146 -30 212 0
-1146 -30 -87 0
-1146 -30 -135 0
-1146 -30 -159 0
-1146 -30 -12 -27 0
-1146 -31 213 0
-1146 -31 -88 0
-1146 -31 -136 0
-1146 -31 -160 0
-1146 -31 -12 -28 0
-1146 -32 214 0
-1146 -32 -89 0
-1146 -32 -137 0
-1146 -32 -161 0
-1146 -32 -12 -29 0
-1146 -33 0
-1147 39 0
-1147 192 0
-1147 -19 0
-1147 -20 0
-1147 -21 0
-1147 -34 212 0
-1147 -34 -67 0
-1147 -34 -115 0
-1147 -34 -139 0
-1147 -34 -7 -27 0
-1147 -35 213 0
-1147 -35 -68 0
-1147 -35 -116 0
-1147 -35 -140 0
-1147 -35 -7 -28 0
-1147 -36 214 0
-1147 -36 -69 0
-1147 -36 -117 0
-1147 -36 -141 0
-1147 -36 -7 -29 0
-1147 -37 0
-1148 39 0
-1148 193 0
-1148 -20 0
-1148 -21 0
-1148 -34 212 0
-1148 -34 -71 0
-1148 -34 -119 0
-1148 -34 -143 0
-1148 -34 -8 -27 0
-1148 -35 213 0
-1148 -35 -72 0
-1148 -35 -120 0
-1148 -35 -144 0
-1148 -35 -8 -28 0
-1148 -36 214 0
-1148 -36 -73 0
-1148 -36 -121 0
-1148 -36 -145 0
-1148 -36 -8 -29 0
-1148 -37 0
-1149 39 0
-1149 194 0
-1149 -21 0
-1149 -34 212 0
-1149 -34 -75 0
-1149 -34 -123 0
-1149 -34 -147 0
-1149 -34 -9 -27 0
-1149 -35 213 0
-1149 -35 -76 0
-1149 -35 -124 0
-1149 -35 -148 0
-1149 -35 -9 -28 0
-1149 -36 214 0
-1149 -36 -77 0
-1149 -36 -125 0
-1149 -36 -149 0
-1149 -36 -9 -29 0
-1149 -37 0
-1150 39 0
-1150 195 0
-1150 -18 0
-1150 -34 212 0
-1150 -34 -79 0
-1150 -34 -127 0
-1150 -34 -151 0
-1150 -34 -10 -27 0
-1150 -35 213 0
-1150 -35 -80 0
-1150 -35 -128 0
-1150 -35 -152 0
-1150 -35 -10 -28 0
-1150 -36 214 0
-1150 -36 -81 0
-1150 -36 -129 0
-1150 -36 -153 0
-1150 -36 -10 -29 0
-1150 -37 0
-1151 39 0
-1151 196 0
-1151 -18 0
-1151 -19 0
-1151 -34 212 0
-1151 -34 -83 0
-1151 -34 -131 0
-1151 -34 -155 0
-1151 -34 -11 -27 0
-1151 -35 213 0
-1151 -35 -84 0
-1151 -35 -132 0
-1151 -35 -156 0
-1151 -35 -11 -28 0
-1151 -36 214 0
-1151 -36 -85 0
-1151 -36 -133 0
-1151 -36 -157 0
-1151 -36 -11 -29 0
-1151 -37 0
-1152 39 0
-1152 197 0
-1152 -18 0
-1152 -19 0
-1152 -20 0
-1152 -34 212 0
-1152 -34 -87 0
-1152 -34 -135 0
-1152 -34 -159 0
-1152 -34 -12 -27 0
-1152 -35 213 0
-1152 -35 -88 0
-1152 -35 -136 0
-1152 -35 -160 0
-1152 -35 -12 -28 0
-1152 -36 214 0
-1152 -36 -89 0
-1152 -36 -137 0
-1152 -36 -161 0
-1152 -36 -12 -29 0
-1152 -37 0
-1153 39 0
-1153 192 0
-1153 211 0
-1153 -66 0
-1153 -114 0
-1153 -138 0
-1153 -7 -26 0
-1154 39 0
-1154 193 0
-1154 211 0
-1154 -70 0
-1154 -118 0
-1154 -142 0
-1154 -8 -26 0
-1155 39 0
-1155 194 0
-1155 211 0
-1155 -74 0
-1155 -122 0
-1155 -146 0
-1155 -9 -26 0
-1156 39 0
-1156 195 0
-1156 211 0
-1156 -78 0
-1156 -126 0
-1156 -150 0
-1156 -10 -26 0
-1157 39 0
-1157 196 0
-1157 211 0
-1157 -82 0
-1157 -130 0
-1157 -154 0
-1157 -11 -26 0
-1158 39 0
-1158 197 0
-1158 211 0
-1158 -86 0
-1158 -134 0
-1158 -158 0
-1158 -12 -26 0
-1159 40 0
-1159 198 0
-1159 -3 0
-1159 -4 0
-1159 -5 0
-1159 -6 0
-1159 -22 216 0
-1159 -22 -67 0
-1159 -22 -71 0
-1159 -22 -91 0
-1159 -22 -95 0
-1159 -22 -139 0
-1159 -22 -143 0
-1159 -22 -13 -31 0
-1159 -23 217 0
-1159 -23 -68 0
-1159 -23 -72 0
-1159 -23 -92 0
-1159 -23 -96 0
-1159 -23 -140 0
-1159 -23 -144 0
-1159 -23 -13 -32 0
-1159 -24 218 0
-1159 -24 -69 0
-1159 -24 -73 0
-1159 -24 -93 0
-1159 -24 -97 0
-1159 -24 -141 0
-1159 -24 -145 0
-1159 -24 -13 -33 0
-1159 -25 0
-1160 40 0
-1160 199 0
-1160 -1 0
-1160 -4 0
-1160 -5 0
-1160 -6 0
-1160 -22 216 0
-1160 -22 -71 0
-1160 -22 -75 0
-1160 -22 -95 0
-1160 -22 -99 0
-1160 -22 -143 0
-1160 -22 -147 0
-1160 -22 -14 -31 0
-1160 -23 217 0
-1160 -23 -72 0
-1160 -23 -76 0
-1160 -23 -96 0
-1160 -23 -100 0
-1160 -23 -144 0
-1160 -23 -148 0
-1160 -23 -14 -32 0
-1160 -24 218 0
-1160 -24 -73 0
-1160 -24 -77 0
-1160 -24 -97 0
-1160 -24 -101 0
-1160 -24 -145 0
-1160 -24 -149 0
-1160 -24 -14 -33 0
-1160 -25 0
-1161 40 0
-1161 200 0
-1161 -1 0
-1161 -2 0
-1161 -5 0
-1161 -6 0
-1161 -22 216 0
-1161 -22 -75 0
-1161 -22 -79 0
-1161 -22 -99 0
-1161 -22 -103 0
-1161 -22 -147 0
-1161 -22 -151 0
-1161 -22 -15 -31 0
-1161 -23 217 0
-1161 -23 -76 0
-1161 -23 -80 0
-1161 -23 -100 0
-1161 -23 -104 0
-1161 -23 -148 0
-1161 -23 -152 0
-1161 -23 -15 -32 0
-1161 -24 218 0
-1161 -24 -77 0
-1161 -24 -81 0
-1161 -24 -101 0
-1161 -24 -105 0
-1161 -24 -149 0
-1161 -24 -153 0
-1161 -24 -15 -33 0
-1161 -25 0
-1162 40 0
-1162 201 0
-1162 -1 0
-1162 -2 0
-1162 -3 0
-1162 -6 0
-1162 -22 216 0
-1162 -22 -79 0
-1162 -22 -83 0
-1162 -22 -103 0
-1162 -22 -107 0
-1162 -22 -151 0
-1162 -22 -155 0
-1162 -22 -16 -31 0
-1162 -23 217 0
-1162 -23 -80 0
-1162 -23 -84 0
-1162 -23 -104 0
-1162 -23 -108 0
-1162 -23 -152 0
-1162 -23 -156 0
-1162 -23 -16 -32 0
-1162 -24 218 0
-1162 -24 -81 0
-1162 -24 -85 0
-1162 -24 -105 0
-1162 -24 -109 0
-1162 -24 -153 0
-1162 -24 -157 0
-1162 -24 -16 -33 0
-1162 -25 0
-1163 40 0
-1163 202 0
-1163 -1 0
-1163 -2 0
-1163 -3 0
-1163 -4 0
-1163 -22 216 0
-1163 -22 -83 0
-1163 -22 -87 0
-1163 -22 -107 0
-1163 -22 -111 0
-1163 -22 -155 0
-1163 -22 -159 0
-1163 -22 -17 -31 0
-1163 -23 217 0
-1163 -23 -84 0
-1163 -23 -88 0
-1163 -23 -108 0
-1163 -23 -112 0
-1163 -23 -156 0
-1163 -23 -160 0
-1163 -23 -17 -32 0
-1163 -24 218 0
-1163 -24 -85 0
-1163 -24 -89 0
-1163 -24 -109 0
-1163 -24 -113 0
-1163 -24 -157 0
-1163 -24 -161 0
-1163 -24 -17 -33 0
-1163 -25 0
-1164 40 0
-1164 198 0
-1164 -9 0
-1164 -10 0
-1164 -11 0
-1164 -12 0
-1164 -26 216 0
-1164 -26 -67 0
-1164 -26 -71 0
-1164 -26 -91 0
-1164 -26 -95 0
-1164 -26 -139 0
-1164 -26 -143 0
-1164 -26 -13 -31 0
-1164 -27 217 0
-1164 -27 -68 0
-1164 -27 -72 0
-1164 -27 -92 0
-1164 -27 -96 0
-1164 -27 -140 0
-1164 -27 -144 0
-1164 -27 -13 -32 0
-1164 -28 218 0
-1164 -28 -69 0
-1164 -28 -73 0
-1164 -28 -93 0
-1164 -28 -97 0
-1164 -28 -141 0
-1164 -28 -145 0
-1164 -28 -13 -33 0
-1164 -29 0
-1165 40 0
-1165 199 0
-1165 -7 0
-1165 -10 0
-1165 -11 0
-1165 -12 0
-1165 -26 216 0
-1165 -26 -71 0
-1165 -26 -75 0
-1165 -26 -95 0
-1165 -26 -99 0
-1165 -26 -143 0
-1165 -26 -147 0
-1165 -26 -14 -31 0
-1165 -27 217 0
-1165 -27 -72 0
-1165 -27 -76 0
-1165 -27 -96 0
-1165 -27 -100 0
-1165 -27 -144 0
-1165 -27 -148 0
-1165 -27 -14 -32 0
-1165 -28 218 0
-1165 -28 -73 0
-1165 -28 -77 0
-1165 -28 -97 0
-1165 -28 -101 0
-1165 -28 -145 0
-1165 -28 -149 0
-1165 -28 -14 -33 0
-1165 -29 0
-1166 40 0
-1166 200 0
-1166 -7 0
-1166 -8 0
-1166 -11 0
-1166 -12 0
-1166 -26 216 0
-1166 -26 -75 0
-1166 -26 -79 0
-1166 -26 -99 0
-1166 -26 -103 0
-1166 -26 -147 0
-1166 -26 -151 0
-1166 -26 -15 -31 0
-1166 -27 217 0
-1166 -27 -76 0
-1166 -27 -80 0
-1166 -27 -100 0
-1166 -27 -104 0
-1166 -27 -148 0
-1166 -27 -152 0
-1166 -27 -15 -32 0
-1166 -28 218 0
-1166 -28 -77 0
-1166 -28 -81 0
-1166 -28 -101 0
-1166 -28 -105 0
-1166 -28 -149 0
-1166 -28 -153 0
-1166 -28 -15 -33 0
-1166 -29 0
-1167 40 0
-1167 201 0
-1167 -7 0
-1167 -8 0
-1167 -9 0
-1167 -12 0
-1167 -26 216 0
-1167 -26 -79 0
-1167 -26 -83 0
-1167 -26 -103 0
-1167 -26 -107 0
-1167 -26 -151 0
-1167 -26 -155 0
-1167 -26 -16 -31 0
-1167 -27 217 0
-1167 -27 -80 0
-1167 -27 -84 0
-1167 -27 -104 0
-1167 -27 -108 0
-1167 -27 -152 0
-1167 -27 -156 0
-1167 -27 -16 -32 0
-1167 -28 218 0
-1167 -28 -81 0
-1167 -28 -85 0
-1167 -28 -105 0
-1167 -28 -109 0
-1167 -28 -153 0
-1167 -28 -157 0
-1167 -28 -16 -33 0
-1167 -29 0
-1168 40 0
-1168 202 0
-1168 -7 0
-1168 -8 0
-1168 -9 0
-1168 -10 0
-1168 -26 216 0
-1168 -26 -83 0
-1168 -26 -87 0
-1168 -26 -107 0
-1168 -26 -111 0
-1168 -26 -155 0
-1168 -26 -159 0
-1168 -26 -17 -31 0
-1168 -27 217 0
-1168 -27 -84 0
-1168 -27 -88 0
-1168 -27 -108 0
-1168 -27 -112 0
-1168 -27 -156 0
-1168 -27 -160 0
-1168 -27 -17 -32 0
-1168 -28 218 0
-1168 -28 -85 0
-1168 -28 -89 0
-1168 -28 -109 0
-1168 -28 -113 0
-1168 -28 -157 0
-1168 -28 -161 0
-1168 -28 -17 -33 0
-1168 -29 0
-1169 40 0
-1169 198 0
-1169 -20 0
-1169 -21 0
-1169 -34 216 0
-1169 -34 -67 0
-1169 -34 -71 0
-1169 -34 -91 0
-1169 -34 -95 0
-1169 -34 -139 0
-1169 -34 -143 0
-1169 -34 -13 -31 0
-1169 -35 217 0
-1169 -35 -68 0
-1169 -35 -72 0
-1169 -35 -92 0
-1169 -35 -96 0
-1169 -35 -140 0
-1169 -35 -144 0
-1169 -35 -13 -32 0
-1169 -36 218 0
-1169 -36 -69 0
-1169 -36 -73 0
-1169 -36 -93 0
-1169 -36 -97 0
-1169 -36 -141 0
-1169 -36 -145 0
-1169 -36 -13 -33 0
-1169 -37 0
-1170 40 0
-1170 199 0
-1170 -21 0
-1170 -34 216 0
-1170 -34 -71 0
-1170 -34 -75 0
-1170 -34 -95 0
-1170 -34 -99 0
-1170 -34 -143 0
-1170 -34 -147 0
-1170 -34 -14 -31 0
-1170 -35 217 0
-1170 -35 -72 0
-1170 -35 -76 0
-1170 -35 -96 0
-1170 -35 -100 0
-1170 -35 -144 0
-1170 -35 -148 0
-1170 -35 -14 -32 0
-1170 -36 218 0
-1170 -36 -73 0
-1170 -36 -77 0
-1170 -36 -97 0
-1170 -36 -101 0
-1170 -36 -145 0
-1170 -36 -149 0
-1170 -36 -14 -33 0
-1170 -37 0
-1171 40 0
-1171 200 0
-1171 -34 216 0
-1171 -34 -75 0
-1171 -34 -79 0
-1171 -34 -99 0
-1171 -34 -103 0
-1171 -34 -147 0
-1171 -34 -151 0
-1171 -34 -15 -31 0
-1171 -35 217 0
-1171 -35 -76 0
-1171 -35 -80 0
-1171 -35 -100 0
-1171 -35 -104 0
-1171 -35 -148 0
-1171 -35 -152 0
-1171 -35 -15 -32 0
-1171 -36 218 0
-1171 -36 -77 0
-1171 -36 -81 0
-1171 -36 -101 0
-1171 -36 -105 0
-1171 -36 -149 0
-1171 -36 -153 0
-1171 -36 -15 -33 0
-1171 -37 0
-1172 40 0
-1172 201 0
-1172 -18 0
-1172 -34 216 0
-1172 -34 -79 0
-1172 -34 -83 0
-1172 -34 -103 0
-1172 -34 -107 0
-1172 -34 -151 0
-1172 -34 -155 0
-1172 -34 -16 -31 0
-1172 -35 217 0
-1172 -35 -80 0
-1172 -35 -84 0
-1172 -35 -104 0
-1172 -35 -108 0
-1172 -35 -152 0
-1172 -35 -156 0
-1172 -35 -16 -32 0
-1172 -36 218 0
-1172 -36 -81 0
-1172 -36 -85 0
-1172 -36 -105 0
-1172 -36 -109 0
-1172 -36 -153 0
-1172 -36 -157 0
-1172 -36 -16 -33 0
-1172 -37 0
-1173 40 0
-1173 202 0
-1173 -18 0
-1173 -19 0
-1173 -34 216 0
-1173 -34 -83 0
-1173 -34 -87 0
-1173 -34 -107 0
-1173 -34 -111 0
-1173 -34 -155 0
-1173 -34 -159 0
-1173 -34 -17 -31 0
-1173 -35 217 0
-1173 -35 -84 0
-1173 -35 -88 0
-1173 -35 -108 0
-1173 -35 -112 0
-1173 -35 -156 0
-1173 -35 -160 0
-1173 -35 -17 -32 0
-1173 -36 218 0
-1173 -36 -85 0
-1173 -36 -89 0
-1173 -36 -109 0
-1173 -36 -113 0
-1173 -36 -157 0
-1173 -36 -161 0
-1173 -36 -17 -33 0
-1173 -37 0
-1174 40 0
-1174 198 0
-1174 215 0
-1174 -66 0
-1174 -70 0
-1174 -90 0
-1174 -94 0
-1174 -138 0
-1174 -142 0
-1174 -13 -30 0
-1175 40 0
-1175 199 0
-1175 215 0
-1175 -70 0
-1175 -74 0
-1175 -94 0
-1175 -98 0
-1175 -142 0
-1175 -146 0
-1175 -14 -30 0
-1176 40 0
-1176 200 0
-1176 215 0
-1176 -74 0
-1176 -78 0
-1176 -98 0
-1176 -102 0
-1176 -146 0
-1176 -150 0
-1176 -15 -30 0
-1177 40 0
-1177 201 0
-1177 215 0
-1177 -78 0
-1177 -82 0
-1177 -102 0
-1177 -106 0
-1177 -150 0
-1177 -154 0
-1177 -16 -30 0
-1178 40 0
-1178 202 0
-1178 215 0
-1178 -82 0
-1178 -86 0
-1178 -106 0
-1178 -110 0
-1178 -154 0
-1178 -158 0
-1178 -17 -30 0
-1179 41 0
-1179 203 0
-1179 -4 0
-1179 -5 0
-1179 -6 0
-1179 -22 220 0
-1179 -22 -67 0
-1179 -22 -71 0
-1179 -22 -75 0
-1179 -22 -91 0
-1179 -22 -95 0
-1179 -22 -99 0
-1179 -22 -115 0
-1179 -22 -119 0
-1179 -22 -123 0
-1179 -22 -18 -35 0
-1179 -23 221 0
-1179 -23 -68 0
-1179 -23 -72 0
-1179 -23 -76 0
-1179 -23 -92 0
-1179 -23 -96 0
-1179 -23 -100 0
-1179 -23 -116 0
-1179 -23 -120 0
-1179 -23 -124 0
-1179 -23 -18 -36 0
-1179 -24 222 0
-1179 -24 -69 0
-1179 -24 -73 0
-1179 -24 -77 0
-1179 -24 -93 0
-1179 -24 -97 0
-1179 -24 -101 0
-1179 -24 -117 0
-1179 -24 -121 0
-1179 -24 -125 0
-1179 -24 -18 -37 0
-1179 -25 0
-1180 41 0
-1180 204 0
-1180 -1 0
-1180 -5 0
-1180 -6 0
-1180 -22 220 0
-1180 -22 -71 0
-1180 -22 -75 0
-1180 -22 -79 0
-1180 -22 -95 0
-1180 -22 -99 0
-1180 -22 -103 0
-1180 -22 -119 0
-1180 -22 -123 0
-1180 -22 -127 0
-1180 -22 -19 -35 0
-1180 -23 221 0
-1180 -23 -72 0
-1180 -23 -76 0
-1180 -23 -80 0
-1180 -23 -96 0
-1180 -23 -100 0
-1180 -23 -104 0
-1180 -23 -120 0
-1180 -23 -124 0
-1180 -23 -128 0
-1180 -23 -19 -36 0
-1180 -24 222 0
-1180 -24 -73 0
-1180 -24 -77 0
-1180 -24 -81 0
-1180 -24 -97 0
-1180 -24 -101 0
-1180 -24 -105 0
-1180 -24 -121 0
-1180 -24 -125 0
-1180 -24 -129 0
-1180 -24 -19 -37 0
-1180 -25 0
-1181 41 0
-1181 205 0
-1181 -1 0
-1181 -2 0
-1181 -6 0
-1181 -22 220 0
-1181 -22 -75 0
-1181 -22 -79 0
-1181 -22 -83 0
-1181 -22 -99 0
-1181 -22 -103 0
-1181 -22 -107 0
-1181 -22 -123 0
-1181 -22 -127 0
-1181 -22 -131 0
-1181 -22 -20 -35 0
-1181 -23 221 0
-1181 -23 -76 0
-1181 -23 -80 0
-1181 -23 -84 0
-1181 -23 -100 0
-1181 -23 -104 0
-1181 -23 -108 0
-1181 -23 -124 0
-1181 -23 -128 0
-1181 -23 -132 0
-1181 -23 -20 -36 0
-1181 -24 222 0
-1181 -24 -77 0
-1181 -24 -81 0
-1181 -24 -85 0
-1181 -24 -101 0
-1181 -24 -105 0
-1181 -24 -109 0
-1181 -24 -125 0
-1181 -24 -129 0
-1181 -24 -133 0
-1181 -24 -20 -37 0
-1181 -25 0
-1182 41 0
-1182 206 0
-1182 -1 0
-1182 -2 0
-1182 -3 0
-1182 -22 220 0
-1182 -22 -79 0
-1182 -22 -83 0
-1182 -22 -87 0
-1182 -22 -103 0
-1182 -22 -107 0
-1182 -22 -111 0
-1182 -22 -127 0
-1182 -22 -131 0
-1182 -22 -135 0
-1182 -22 -21 -35 0
-1182 -23 221 0
-1182 -23 -80 0
-1182 -23 -84 0
-1182 -23 -88 0
-1182 -23 -104 0
-1182 -23 -108 0
-1182 -23 -112 0
-1182 -23 -128 0
-1182 -23 -132 0
-1182 -23 -136 0
-1182 -23 -21 -36 0
-1182 -24 222 0
-1182 -24 -81 0
-1182 -24 -85 0
-1182 -24 -89 0
-1182 -24 -105 0
-1182 -24 -109 0
-1182 -24 -113 0
-1182 -24 -129 0
-1182 -24 -133 0
-1182 -24 -137 0
-1182 -24 -21 -37 0
-1182 -25 0
-1183 41 0
-1183 203 0
-1183 -10 0
-1183 -11 0
-1183 -12 0
-1183 -26 220 0
-1183 -26 -67 0
-1183 -26 -71 0
-1183 -26 -75 0
-1183 -26 -91 0
-1183 -26 -95 0
-1183 -26 -99 0
-1183 -26 -115 0
-1183 -26 -119 0
-1183 -26 -123 0
-1183 -26 -18 -35 0
-1183 -27 221 0
-1183 -27 -68 0
-1183 -27 -72 0
-1183 -27 -76 0
-1183 -27 -92 0
-1183 -27 -96 0
-1183 -27 -100 0
-1183 -27 -116 0
-1183 -27 -120 0
-1183 -27 -124 0
-1183 -27 -18 -36 0
-1183 -28 222 0
-1183 -28 -69 0
-1183 -28 -73 0
-1183 -28 -77 0
-1183 -28 -93 0
-1183 -28 -97 0
-1183 -28 -101 0
-1183 -28 -117 0
-1183 -28 -121 0
-1183 -28 -125 0
-1183 -28 -18 -37 0
-1183 -29 0
-1184 41 0
-1184 204 0
-1184 -7 0
-1184 -11 0
-1184 -12 0
-1184 -26 220 0
-1184 -26 -71 0
-1184 -26 -75 0
-1184 -26 -79 0
-1184 -26 -95 0
-1184 -26 -99 0
-1184 -26 -103 0
-1184 -26 -119 0
-1184 -26 -123 0
-1184 -26 -127 0
-1184 -26 -19 -35 0
-1184 -27 221 0
-1184 -27 -72 0
-1184 -27 -76 0
-1184 -27 -80 0
-1184 -27 -96 0
-1184 -27 -100 0
-1184 -27 -104 0
-1184 -27 -120 0
-1184 -27 -124 0
-1184 -27 -128 0
-1184 -27 -19 -36 0
-1184 -28 222 0
-1184 -28 -73 0
-1184 -28 -77 0
-1184 -28 -81 0
-1184 -28 -97 0
-1184 -28 -101 0
-1184 -28 -105 0
-1184 -28 -121 0
-1184 -28 -125 0
-1184 -28 -129 0
-1184 -28 -19 -37 0
-1184 -29 0
-1185 41 0
-1185 205 0
-1185 -7 0
-1185 -8 0
-1185 -12 0
-1185 -26 220 0
-1185 -26 -75 0
-1185 -26 -79 0
-1185 -26 -83 0
-1185 -26 -99 0
-1185 -26 -103 0
-1185 -26 -107 0
-1185 -26 -123 0
-1185 -26 -127 0
-1185 -26 -131 0
-1185 -26 -20 -35 0
-1185 -27 221 0
-1185 -27 -76 0
-1185 -27 -80 0
-1185 -27 -84 0
-1185 -27 -100 0
-1185 -27 -104 0
-1185 -27 -108 0
-1185 -27 -124 0
-1185 -27 -128 0
-1185 -27 -132 0
-1185 -27 -20 -36 0
-1185 -28 222 0
-1185 -28 -77 0
-1185 -28 -81 0
-1185 -28 -85 0
-1185 -28 -101 0
-1185 -28 -105 0
-1185 -28 -109 0
-1185 -28 -125 0
-1185 -28 -129 0
-1185 -28 -133 0
-1185 -28 -20 -37 0
-1185 -29 0
-1186 41 0
-1186 206 0
-1186 -7 0
-1186 -8 0
-1186 -9 0
-1186 -26 220 0
-1186 -26 -79 0
-1186 -26 -83 0
-1186 -26 -87 0
-1186 -26 -103 0
-1186 -26 -107 0
-1186 -26 -111 0
-1186 -26 -127 0
-1186 -26 -131 0
-1186 -26 -135 0
-1186 -26 -21 -35 0
-1186 -27 221 0
-1186 -27 -80 0
-1186 -27 -84 0
-1186 -27 -88 0
-1186 -27 -104 0
-1186 -27 -108 0
-1186 -27 -112 0
-1186 -27 -128 0
-1186 -27 -132 0
-1186 -27 -136 0
-1186 -27 -21 -36 0
-1186 -28 222 0
-1186 -28 -81 0
-1186 -28 -85 0
-1186 -28 -89 0
-1186 -28 -105 0
-1186 -28 -109 0
-1186 -28 -113 0
-1186 -28 -129 0
-1186 -28 -133 0
-1186 -28 -137 0
-1186 -28 -21 -37 0
-1186 -29 0
-1187 41 0
-1187 203 0
-1187 -16 0
-1187 -17 0
-1187 -30 220 0
-1187 -30 -67 0
-1187 -30 -71 0
-1187 -30 -75 0
-1187 -30 -91 0
-1187 -30 -95 0
-1187 -30 -99 0
-1187 -30 -115 0
-1187 -30 -119 0
-1187 -30 -123 0
-1187 -30 -18 -35 0
-1187 -31 221 0
-1187 -31 -68 0
-1187 -31 -72 0
-1187 -31 -76 0
-1187 -31 -92 0
-1187 -31 -96 0
-1187 -31 -100 0
-1187 -31 -116 0
-1187 -31 -120 0
-1187 -31 -124 0
-1187 -31 -18 -36 0
-1187 -32 222 0
-1187 -32 -69 0
-1187 -32 -73 0
-1187 -32 -77 0
-1187 -32 -93 0
-1187 -32 -97 0
-1187 -32 -101 0
-1187 -32 -117 0
-1187 -32 -121 0
-1187 -32 -125 0
-1187 -32 -18 -37 0
-1187 -33 0
-1188 41 0
-1188 204 0
-1188 -17 0
-1188 -30 220 0
-1188 -30 -71 0
-1188 -30 -75 0
-1188 -30 -79 0
-1188 -30 -95 0
-1188 -30 -99 0
-1188 -30 -103 0
-1188 -30 -119 0
-1188 -30 -123 0
-1188 -30 -127 0
-1188 -30 -19 -35 0
-1188 -31 221 0
-1188 -31 -72 0
-1188 -31 -76 0
-1188 -31 -80 0
-1188 -31 -96 0
-1188 -31 -100 0
-1188 -31 -104 0
-1188 -31 -120 0
-1188 -31 -124 0
-1188 -31 -128 0
-1188 -31 -19 -36 0
-1188 -32 222 0
-1188 -32 -73 0
-1188 -32 -77 0
-1188 -32 -81 0
-1188 -32 -97 0
-1188 -32 -101 0
-1188 -32 -105 0
-1188 -32 -121 0
-1188 -32 -125 0
-1188 -32 -129 0
-1188 -32 -19 -37 0
-1188 -33 0
-1189 41 0
-1189 205 0
-1189 -13 0
-1189 -30 220 0
-1189 -30 -75 0
-1189 -30 -79 0
-1189 -30 -83 0
-1189 -30 -99 0
-1189 -30 -103 0
-1189 -30 -107 0
-1189 -30 -123 0
-1189 -30 -127 0
-1189 -30 -131 0
-1189 -30 -20 -35 0
-1189 -31 221 0
-1189 -31 -76 0
-1189 -31 -80 0
-1189 -31 -84 0
-1189 -31 -100 0
-1189 -31 -104 0
-1189 -31 -108 0
-1189 -31 -124 0
-1189 -31 -128 0
-1189 -31 -132 0
-1189 -31 -20 -36 0
-1189 -32 222 0
-1189 -32 -77 0
-1189 -32 -81 0
-1189 -32 -85 0
-1189 -32 -101 0
-1189 -32 -105 0
-1189 -32 -109 0
-1189 -32 -125 0
-1189 -32 -129 0
-1189 -32 -133 0
-1189 -32 -20 -37 0
-1189 -33 0
-1190 41 0
-1190 206 0
-1190 -13 0
-1190 -14 0
-1190 -30 220 0
-1190 -30 -79 0
-1190 -30 -83 0
-1190 -30 -87 0
-1190 -30 -103 0
-1190 -30 -107 0
-1190 -30 -111 0
-1190 -30 -127 0
-1190 -30 -131 0
-1190 -30 -135 0
-1190 -30 -21 -35 0
-1190 -31 221 0
-1190 -31 -80 0
-1190 -31 -84 0
-1190 -31 -88 0
-1190 -31 -104 0
-1190 -31 -108 0
-1190 -31 -112 0
-1190 -31 -128 0
-1190 -31 -132 0
-1190 -31 -136 0
-1190 -31 -21 -36 0
-1190 -32 222 0
-1190 -32 -81 0
-1190 -32 -85 0
-1190 -32 -89 0
-1190 -32 -105 0
-1190 -32 -109 0
-1190 -32 -113 0
-1190 -32 -129 0
-1190 -32 -133 0
-1190 -32 -137 0
-1190 -32 -21 -37 0
-1190 -33 0
-1191 41 0
-1191 203 0
-1191 219 0
-1191 -66 0
-1191 -70 0
-1191 -74 0
-1191 -90 0
-1191 -94 0
-1191 -98 0
-1191 -114 0
-1191 -118 0
-1191 -122 0
-1191 -18 -34 0
-1192 41 0
-1192 204 0
-1192 219 0
-1192 -70 0
-1192 -74 0
-1192 -78 0
-1192 -94 0
-1192 -98 0
-1192 -102 0
-1192 -118 0
-1192 -122 0
-1192 -126 0
-1192 -19 -34 0
-1193 41 0
-1193 205 0
-1193 219 0
-1193 -74 0
-1193 -78 0
-1193 -82 0
-1193 -98 0
-1193 -102 0
-1193 -106 0
-1193 -122 0
-1193 -126 0
-1193 -130 0
-1193 -20 -34 0
-1194 41 0
-1194 206 0
-1194 219 0
-1194 -78 0
-1194 -82 0
-1194 -86 0
-1194 -102 0
-1194 -106 0
-1194 -110 0
-1194 -126 0
-1194 -130 0
-1194 -134 0
-1194 -21 -34 0
-1 186 1111 1112 1113 1114 1115 1116 1117 1118 1119 1120 1121 1122 1123 1124 1125 1126 1127 1128 1129 1130 1131 1132 1133 1134 0
-2 187 1111 1112 1113 1114 1115 1116 1117 1118 1119 1120 1121 1122 1123 1124 1125 1126 1127 1128 1129 1130 1131 1132 1133 1134 0
-3 188 1111 1112 1113 1114 1115 1116 1117 1118 1119 1120 1121 1122 1123 1124 1125 1126 1127 1128 1129 1130 1131 1132 1133 1134 0
-4 189 1111 1112 1113 1114 1115 1116 1117 1118 1119 1120 1121 1122 1123 1124 1125 1126 1127 1128 1129 1130 1131 1132 1133 1134 0
-5 190 1111 1112 1113 1114 1115 1116 1117 1118 1119 1120 1121 1122 1123 1124 1125 1126 1127 1128 1129 1130 1131 1132 1133 1134 0
-6 191 1111 1112 1113 1114 1115 1116 1117 1118 1119 1120 1121 1122 1123 1124 1125 1126 1127 1128 1129 1130 1131 1132 1133 1134 0
-22 207 1111 1112 1113 1114 1115 1116 1117 1118 1119 1120 1121 1122 1123 1124 1125 1126 1127 1128 1129 1130 1131 1132 1133 1134 0
-23 208 1111 1112 1113 1114 1115 1116 1117 1118 1119 1120 1121 1122 1123 1124 1125 1126 1127 1128 1129 1130 1131 1132 1133 1134 0
-24 209 1111 1112 1113 1114 1115 1116 1117 1118 1119 1120 1121 1122 1123 1124 1125 1126 1127 1128 1129 1130 1131 1132 1133 1134 0
-25 210 1111 1112 1113 1114 1115 1116 1117 1118 1119 1120 1121 1122 1123 1124 1125 1126 1127 1128 1129 1130 1131 1132 1133 1134 0
-7 192 1135 1136 1137 1138 1139 1140 1141 1142 1143 1144 1145 1146 1147 1148 1149 1150 1151 1152 1153 1154 1155 1156 1157 1158 0
-8 193 1135 1136 1137 1138 1139 1140 1141 1142 1143 1144 1145 1146 1147 1148 1149 1150 1151 1152 1153 1154 1155 1156 1157 1158 0
-9 194 1135 1136 1137 1138 1139 1140 1141 1142 1143 1144 1145 1146 1147 1148 1149 1150 1151 1152 1153 1154 1155 1156 1157 1158 0
-10 195 1135 1136 1137 1138 1139 1140 1141 1142 1143 1144 1145 1146 1147 1148 1149 1150 1151 1152 1153 1154 1155 1156 1157 1158 0
-11 196 1135 1136 1137 1138 1139 1140 1141 1142 1143 1144 1145 1146 1147 1148 1149 1150 1151 1152 1153 1154 1155 1156 1157 1158 0
-12 197 1135 1136 1137 1138 1139 1140 1141 1142 1143 1144 1145 1146 1147 1148 1149 1150 1151 1152 1153 1154 1155 1156 1157 1158 0
-26 211 1135 1136 1137 1138 1139 1140 1141 1142 1143 1144 1145 1146 1147 1148 1149 1150 1151 1152 1153 1154 1155 1156 1157 1158 0
-27 212 1135 1136 1137 1138 1139 1140 1141 1142 1143 1144 1145 1146 1147 1148 1149 1150 1151 1152 1153 1154 1155 1156 1157 1158 0
-28 213 1135 1136 1137 1138 1139 1140 1141 1142 1143 1144 1145 1146 1147 1148 1149 1150 1151 1152 1153 1154 1155 1156 1157 1158 0
-29 214 1135 1136 1137 1138 1139 1140 1141 1142 1143 1144 1145 1146 1147 1148 1149 1150 1151 1152 1153 1154 1155 1156 1157 1158 0
-13 198 1159 1160 1161 1162 1163 1164 1165 1166 1167 1168 1169 1170 1171 1172 1173 1174 1175 1176 1177 1178 0
-14 199 1159 1160 1161 1162 1163 1164 1165 1166 1167 1168 1169 1170 1171 1172 1173 1174 1175 1176 1177 1178 0
-15 200 1159 1160 1161 1162 1163 1164 1165 1166 1167 1168 1169 1170 1171 1172 1173 1174 1175 1176 1177 1178 0
-16 201 1159 1160 1161 1162 1163 1164 1165 1166 1167 1168 1169 1170 1171 1172 1173 1174 1175 1176 1177 1178 0
-17 202 1159 1160 1161 1162 1163 1164 1165 1166 1167 1168 1169 1170 1171 1172 1173 1174 1175 1176 1177 1178 0
-30 215 1159 1160 1161 1162 1163 1164 1165 1166 1167 1168 1169 1170 1171 1172 1173 1174 1175 1176 1177 1178 0
-31 216 1159 1160 1161 1162 1163 1164 1165 1166 1167 1168 1169 1170 1171 1172 1173 1174 1175 1176 1177 1178 0
-32 217 1159 1160 1161 1162 1163 1164 1165 1166 1167 1168 1169 1170 1171 1172 1173 1174 1175 1176 1177 1178 0
-33 218 1159 1160 1161 1162 1163 1164 1165 1166 1167 1168 1169 1170 1171 1172 1173 1174 1175 1176 1177 1178 0
-18 203 1179 1180 1181 1182 1183 1184 1185 1186 1187 1188 1189 1190 1191 1192 1193 1194 0
-19 204 1179 1180 1181 1182 1183 1184 1185 1186 1187 1188 1189 1190 1191 1192 1193 1194 0
-20 205 1179 1180 1181 1182 1183 1184 1185 1186 1187 1188 1189 1190 1191 1192 1193 1194 0
-21 206 1179 1180 1181 1182 1183 1184 1185 1186 1187 1188 1189 1190 1191 1192 1193 1194 0
-34 219 1179 1180 1181 1182 1183 1184 1185 1186 1187 1188 1189 1190 1191 1192 1193 1194 0
-35 220 1179 1180 1181 1182 1183 1184 1185 1186 1187 1188 1189 1190 1191 1192 1193 1194 0
-36 221 1179 1180 1181 1182 1183 1184 1185 1186 1187 1188 1189 1190 1191 1192 1193 1194 0
-37 222 1179 1180 1181 1182 1183 1184 1185 1186 1187 1188 1189 1190 1191 1192 1193 1194 0
-1195 -1196 0
-1195 -1197 0
-1195 -1198 0
-1195 -1199 0
-1195 -1200 0
-1195 -1201 0
-1195 -1202 0
-1195 -1203 0
-1195 -1204 0
-1195 -1205 0
-1195 -1206 0
-1195 -1207 0
-1195 -1208 0
-1195 -1209 0
-1195 -1210 0
-1195 -1211 0
-1195 -1212 0
-1195 -1213 0
-1195 -1214 0
-1195 -1215 0
-1195 -1216 0
-1195 -1217 0
-1195 -1218 0
-1195 -1219 0
-1195 -1220 0
-1195 -1221 0
-1195 -1222 0
-1195 -1223 0
-1195 -1224 0
-1195 -1225 0
-1195 -1226 0
-1195 -1227 0
-1195 -1228 0
-1195 -1229 0
-1195 -1230 0
-1195 -1231 0
-1195 -1232 0
-1195 -1233 0
-1195 -1234 0
-1195 -1235 0
-1195 -1236 0
-1195 -1237 0
-1195 -1238 0
-1195 -1239 0
-1195 -1240 0
-1195 -1241 0
-1195 -1242 0
-1195 -1243 0
-1195 -1244 0
-1195 -1245 0
-1195 -1246 0
-1195 -1247 0
-1195 -1248 0
-1195 -1249 0
-1195 -1250 0
-1195 -1251 0
-1195 -1252 0
-1195 -1253 0
-1195 -1254 0
-1195 -1255 0
-1195 -1256 0
-1195 -1257 0
-1195 -1258 0
-1195 -1259 0
-1195 -1260 0
-1195 -1261 0
-1195 -1262 0
-1195 -1263 0
-1195 -1264 0
-1195 -1265 0
-1195 -1266 0
-1195 -1267 0
-1195 -1268 0
-1195 -1269 0
-1195 -1270 0
-1195 -1271 0
-1195 -1272 0
-1195 -1273 0
-1195 -1274 0
-1195 -1275 0
-1195 -1276 0
-1195 -1277 0
-1195 -1278 0
-1196 -1197 0
-1196 -1198 0
-1196 -1199 0
-1196 -1200 0
-1196 -1201 0
-1196 -1202 0
-1196 -1203 0
-1196 -1204 0
-1196 -1205 0
-1196 -1206 0
-1196 -1207 0
-1196 -1208 0
-1196 -1209 0
-1196 -1210 0
-1196 -1211 0
-1196 -1212 0
-1196 -1213 0
-1196 -1214 0
-1196 -1215 0
-1196 -1216 0
-1196 -1217 0
-1196 -1218 0
-1196 -1219 0
-1196 -1220 0
-1196 -1221 0
-1196 -1222 0
-1196 -1223 0
-1196 -1224 0
-1196 -1225 0
-1196 -1226 0
-1196 -1227 0
-1196 -1228 0
-1196 -1229 0
-1196 -1230 0
-1196 -1231 0
-1196 -1232 0
-1196 -1233 0
-1196 -1234 0
-1196 -1235 0
-1196 -1236 0
-1196 -1237 0
-1196 -1238 0
-1196 -1239 0
-1196 -1240 0
-1196 -1241 0
-1196 -1242 0
-1196 -1243 0
-1196 -1244 0
-1196 -1245 0
-1196 -1246 0
-1196 -1247 0
-1196 -1248 0
-1196 -1249 0
-1196 -1250 0
-1196 -1251 0
-1196 -1252 0
-1196 -1253 0
-1196 -1254 0
-1196 -1255 0
-1196 -1256 0
-1196 -1257 0
-1196 -1258 0
-1196 -1259 0
-1196 -1260 0
-1196 -1261 0
-1196 -1262 0
-1196 -1263 0
-1196 -1264 0
-1196 -1265 0
-1196 -1266 0
-1196 -1267 0
-1196 -1268 0
-1196 -1269 0
-1196 -1270 0
-1196 -1271 0
-1196 -1272 0
-1196 -1273 0
-1196 -1274 0
-1196 -1275 0
-1196 -1276 0
-1196 -1277 0
-1196 -1278 0
-1197 -1198 0
-1197 -1199 0
-1197 -1200 0
-1197 -1201 0
-1197 -1202 0
-1197 -1203 0
-1197 -1204 0
-1197 -1205 0
-1197 -1206 0
-1197 -1207 0
-1197 -1208 0
-1197 -1209 0
-1197 -1210 0
-1197 -1211 0
-1197 -1212 0
-1197 -1213 0
-1197 -1214 0
-1197 -1215 0
-1197 -1216 0
-1197 -1217 0
-1197 -1218 0
-1197 -1219 0
-1197 -1220 0
-1197 -1221 0
-1197 -1222 0
-1197 -1223 0
-1197 -1224 0
-1197 -1225 0
-1197 -1226 0
-1197 -1227 0
-1197 -1228 0
-1197 -1229 0
-1197 -1230 0
-1197 -1231 0
-1197 -1232 0
-1197 -1233 0
-1197 -1234 0
-1197 -1235 0
-1197 -1236 0
-1197 -1237 0
-1197 -1238 0
-1197 -1239 0
-1197 -1240 0
-1197 -1241 0
-1197 -1242 0
-1197 -1243 0
-1197 -1244 0
-1197 -1245 0
-1197 -1246 0
-1197 -1247 0
-1197 -1248 0
-1197 -1249 0
-1197 -1250 0
-1197 -1251 0
-1197 -1252 0
-1197 -1253 0
-1197 -1254 0
-1197 -1255 0
-1197 -1256 0
-1197 -1257 0
-1197 -1258 0
-1197 -1259 0
-1197 -1260 0
-1197 -1261 0
-1197 -1262 0
-1197 -1263 0
-1197 -1264 0
-1197 -1265 0
-1197 -1266 0
-1197 -1267 0
-1197 -1268 0
-1197 -1269 0
-1197 -1270 0
-1197 -1271 0
-1197 -1272 0
-1197 -1273 0
-1197 -1274 0
-1197 -1275 0
-1197 -1276 0
-1197 -1277 0
-1197 -1278 0
-1198 -1199 0
-1198 -1200 0
-1198 -1201 0
-1198 -1202 0
-1198 -1203 0
-1198 -1204 0
-1198 -1205 0
-1198 -1206 0
-1198 -1207 0
-1198 -1208 0
-1198 -1209 0
-1198 -1210 0
-1198 -1211 0
-1198 -1212 0
-1198 -1213 0
-1198 -1214 0
-1198 -1215 0
-1198 -1216 0
-1198 -1217 0
-1198 -1218 0
-1198 -1219 0
-1198 -1220 0
-1198 -1221 0
-1198 -1222 0
-1198 -1223 0
-1198 -1224 0
-1198 -1225 0
-1198 -1226 0
-1198 -1227 0
-1198 -1228 0
-1198 -1229 0
-1198 -1230 0
-1198 -1231 0
-1198 -1232 0
-1198 -1233 0
-1198 -1234 0
-1198 -1235 0
-1198 -1236 0
-1198 -1237 0
-1198 -1238 0
-1198 -1239 0
-1198 -1240 0
-1198 -1241 0
-1198 -1242 0
-1198 -1243 0
-1198 -1244 0
-1198 -1245 0
-1198 -1246 0
-1198 -1247 0
-1198 -1248 0
-1198 -1249 0
-1198 -1250 0
-1198 -1251 0
-1198 -1252 0
-1198 -1253 0
-1198 -1254 0
-1198 -1255 0
-1198 -1256 0
-1198 -1257 0
-1198 -1258 0
-1198 -1259 0
-1198 -1260 0
-1198 -1261 0
-1198 -1262 0
-1198 -1263 0
-1198 -1264 0
-1198 -1265 0
-1198 -1266 0
-1198 -1267 0
-1198 -1268 0
-1198 -1269 0
-1198 -1270 0
-1198 -1271 0
-1198 -1272 0
-1198 -1273 0
-1198 -1274 0
-1198 -1275 0
-1198 -1276 0
-1198 -1277 0
-1198 -1278 0
-1199 -1200 0
-1199 -1201 0
-1199 -1202 0
-1199 -1203 0
-1199 -1204 0
-1199 -1205 0
-1199 -1206 0
-1199 -1207 0
-1199 -1208 0
-1199 -1209 0
-1199 -1210 0
-1199 -1211 0
-1199 -1212 0
-1199 -1213 0
-1199 -1214 0
-1199 -1215 0
-1199 -1216 0
-1199 -1217 0
-1199 -1218 0
-1199 -1219 0
-1199 -1220 0
-1199 -1221 0
-1199 -1222 0
-1199 -1223 0
-1199 -1224 0
-1199 -1225 0
-1199 -1226 0
-1199 -1227 0
-1199 -1228 0
-1199 -1229 0
-1199 -1230 0
-1199 -1231 0
-1199 -1232 0
-1199 -1233 0
-1199 -1234 0
-1199 -1235 0
-1199 -1236 0
-1199 -1237 0
-1199 -1238 0
-1199 -1239 0
-1199 -1240 0
-1199 -1241 0
-1199 -1242 0
-1199 -1243 0
-1199 -1244 0
-1199 -1245 0
-1199 -1246 0
-1199 -1247 0
-1199 -1248 0
-1199 -1249 0
-1199 -1250 0
-1199 -1251 0
-1199 -1252 0
-1199 -1253 0
-1199 -1254 0
-1199 -1255 0
-1199 -1256 0
-1199 -1257 0
-1199 -1258 0
-1199 -1259 0
-1199 -1260 0
-1199 -1261 0
-1199 -1262 0
-1199 -1263 0
-1199 -1264 0
-1199 -1265 0
-1199 -1266 0
-1199 -1267 0
-1199 -1268 0
-1199 -1269 0
-1199 -1270 0
-1199 -1271 0
-1199 -1272 0
-1199 -1273 0
-1199 -1274 0
-1199 -1275 0
-1199 -1276 0
-1199 -1277 0
-1199 -1278 0
-1200 -1201 0
-1200 -1202 0
-1200 -1203 0
-1200 -1204 0
-1200 -1205 0
-1200 -1206 0
-1200 -1207 0
-1200 -1208 0
-1200 -1209 0
-1200 -1210 0
-1200 -1211 0
-1200 -1212 0
-1200 -1213 0
-1200 -1214 0
-1200 -1215 0
-1200 -1216 0
-1200 -1217 0
-1200 -1218 0
-1200 -1219 0
-1200 -1220 0
-1200 -1221 0
-1200 -1222 0
-1200 -1223 0
-1200 -1224 0
-1200 -1225 0
-1200 -1226 0
-1200 -1227 0
-1200 -1228 0
-1200 -1229 0
-1200 -1230 0
-1200 -1231 0
-1200 -1232 0
-1200 -1233 0
-1200 -1234 0
-1200 -1235 0
-1200 -1236 0
-1200 -1237 0
-1200 -1238 0
-1200 -1239 0
-1200 -1240 0
-1200 -1241 0
-1200 -1242 0
-1200 -1243 0
-1200 -1244 0
-1200 -1245 0
-1200 -1246 0
-1200 -1247 0
-1200 -1248 0
-1200 -1249 0
-1200 -1250 0
-1200 -1251 0
-1200 -1252 0
-1200 -1253 0
-1200 -1254 0
-1200 -1255 0
-1200 -1256 0
-1200 -1257 0
-1200 -1258 0
-1200 -1259 0
-1200 -1260 0
-1200 -1261 0
-1200 -1262 0
-1200 -1263 0
-1200 -1264 0
-1200 -1265 0
-1200 -1266 0
-1200 -1267 0
-1200 -1268 0
-1200 -1269 0
-1200 -1270 0
-1200 -1271 0
-1200 -1272 0
-1200 -1273 0
-1200 -1274 0
-1200 -1275 0
-1200 -1276 0
-1200 -1277 0
-1200 -1278 0
-1201 -1202 0
-1201 -1203 0
-1201 -1204 0
-1201 -1205 0
-1201 -1206 0
-1201 -1207 0
-1201 -1208 0
-1201 -1209 0
-1201 -1210 0
-1201 -1211 0
-1201 -1212 0
-1201 -1213 0
-1201 -1214 0
-1201 -1215 0
-1201 -1216 0
-1201 -1217 0
-1201 -1218 0
-1201 -1219 0
-1201 -1220 0
-1201 -1221 0
-1201 -1222 0
-1201 -1223 0
-1201 -1224 0
-1201 -1225 0
-1201 -1226 0
-1201 -1227 0
-1201 -1228 0
-1201 -1229 0
-1201 -1230 0
-1201 -1231 0
-1201 -1232 0
-1201 -1233 0
-1201 -1234 0
-1201 -1235 0
-1201 -1236 0
-1201 -1237 0
-1201 -1238 0
-1201 -1239 0
-1201 -1240 0
-1201 -1241 0
-1201 -1242 0
-1201 -1243 0
-1201 -1244 0
-1201 -1245 0
-1201 -1246 0
-1201 -1247 0
-1201 -1248 0
-1201 -1249 0
-1201 -1250 0
-1201 -1251 0
-1201 -1252 0
-1201 -1253 0
-1201 -1254 0
-1201 -1255 0
-1201 -1256 0
-1201 -1257 0
-1201 -1258 0
-1201 -1259 0
-1201 -1260 0
-1201 -1261 0
-1201 -1262 0
-1201 -1263 0
-1201 -1264 0
-1201 -1265 0
-1201 -1266 0
-1201 -1267 0
-1201 -1268 0
-1201 -1269 0
-1201 -1270 0
-1201 -1271 0
-1201 -1272 0
-1201 -1273 0
-1201 -1274 0
-1201 -1275 0
-1201 -1276 0
-1201 -1277 0
-1201 -1278 0
-1202 -1203 0
-1202 -1204 0
-1202 -1205 0
-1202 -1206 0
-1202 -1207 0
-1202 -1208 0
-1202 -1209 0
-1202 -1210 0
-1202 -1211 0
-1202 -1212 0
-1202 -1213 0
-1202 -1214 0
-1202 -1215 0
-1202 -1216 0
-1202 -1217 0
-1202 -1218 0
-1202 -1219 0
-1202 -1220 0
-1202 -1221 0
-1202 -1222 0
-1202 -1223 0
-1202 -1224 0
-1202 -1225 0
-1202 -1226 0
-1202 -1227 0
-1202 -1228 0
-1202 -1229 0
-1202 -1230 0
-1202 -1231 0
-1202 -1232 0
-1202 -1233 0
-1202 -1234 0
-1202 -1235 0
-1202 -1236 0
-1202 -1237 0
-1202 -1238 0
-1202 -1239 0
-1202 -1240 0
-1202 -1241 0
-1202 -1242 0
-1202 -1243 0
-1202 -1244 0
-1202 -1245 0
-1202 -1246 0
-1202 -1247 0
-1202 -1248 0
-1202 -1249 0
-1202 -1250 0
-1202 -1251 0
-1202 -1252 0
-1202 -1253 0
-1202 -1254 0
-1202 -1255 0
-1202 -1256 0
-1202 -1257 0
-1202 -1258 0
-1202 -1259 0
-1202 -1260 0
-1202 -1261 0
-1202 -1262 0
-1202 -1263 0
-1202 -1264 0
-1202 -1265 0
-1202 -1266 0
-1202 -1267 0
-1202 -1268 0
-1202 -1269 0
-1202 -1270 0
-1202 -1271 0
-1202 -1272 0
-1202 -1273 0
-1202 -1274 0
-1202 -1275 0
-1202 -1276 0
-1202 -1277 0
-1202 -1278 0
-1203 -1204 0
-1203 -1205 0
-1203 -1206 0
-1203 -1207 0
-1203 -1208 0
-1203 -1209 0
-1203 -1210 0
-1203 -1211 0
-1203 -1212 0
-1203 -1213 0
-1203 -1214 0
-1203 -1215 0
-1203 -1216 0
-1203 -1217 0
-1203 -1218 0
-1203 -1219 0
-1203 -1220 0
-1203 -1221 0
-1203 -1222 0
-1203 -1223 0
-1203 -1224 0
-1203 -1225 0
-1203 -1226 0
-1203 -1227 0
-1203 -1228 0
-1203 -1229 0
-1203 -1230 0
-1203 -1231 0
-1203 -1232 0
-1203 -1233 0
-1203 -1234 0
-1203 -1235 0
-1203 -1236 0
-1203 -1237 0
-1203 -1238 0
-1203 -1239 0
-1203 -1240 0
-1203 -1241 0
-1203 -1242 0
-1203 -1243 0
-1203 -1244 0
-1203 -1245 0
-1203 -1246 0
-1203 -1247 0
-1203 -1248 0
-1203 -1249 0
-1203 -1250 0
-1203 -1251 0
-1203 -1252 0
-1203 -1253 0
-1203 -1254 0
-1203 -1255 0
-1203 -1256 0
-1203 -1257 0
-1203 -1258 0
-1203 -1259 0
-1203 -1260 0
-1203 -1261 0
-1203 -1262 0
-1203 -1263 0
-1203 -1264 0
-1203 -1265 0
-1203 -1266 0
-1203 -1267 0
-1203 -1268 0
-1203 -1269 0
-1203 -1270 0
-1203 -1271 0
-1203 -1272 0
-1203 -1273 0
-1203 -1274 0
-1203 -1275 0
-1203 -1276 0
-1203 -1277 0
-1203 -1278 0
-1204 -1205 0
-1204 -1206 0
-1204 -1207 0
-1204 -1208 0
-1204 -1209 0
-1204 -1210 0
-1204 -1211 0
-1204 -1212 0
-1204 -1213 0
-1204 -1214 0
-1204 -1215 0
-1204 -1216 0
-1204 -1217 0
-1204 -1218 0
-1204 -1219 0
-1204 -1220 0
-1204 -1221 0
-1204 -1222 0
-1204 -1223 0
-1204 -1224 0
-1204 -1225 0
-1204 -1226 0
-1204 -1227 0
-1204 -1228 0
-1204 -1229 0
-1204 -1230 0
-1204 -1231 0
-1204 -1232 0
-1204 -1233 0
-1204 -1234 0
-1204 -1235 0
-1204 -1236 0
-1204 -1237 0
-1204 -1238 0
-1204 -1239 0
-1204 -1240 0
-1204 -1241 0
-1204 -1242 0
-1204 -1243 0
-1204 -1244 0
-1204 -1245 0
-1204 -1246 0
-1204 -1247 0
-1204 -1248 0
-1204 -1249 0
-1204 -1250 0
-1204 -1251 0
-1204 -1252 0
-1204 -1253 0
-1204 -1254 0
-1204 -1255 0
-1204 -1256 0
-1204 -1257 0
-1204 -1258 0
-1204 -1259 0
-1204 -1260 0
-1204 -1261 0
-1204 -1262 0
-1204 -1263 0
-1204 -1264 0
-1204 -1265 0
-1204 -1266 0
-1204 -1267 0
-1204 -1268 0
-1204 -1269 0
-1204 -1270 0
-1204 -1271 0
-1204 -1272 0
-1204 -1273 0
-1204 -1274 0
-1204 -1275 0
-1204 -1276 0
-1204 -1277 0
-1204 -1278 0
-1205 -1206 0
-1205 -1207 0
-1205 -1208 0
-1205 -1209 0
-1205 -1210 0
-1205 -1211 0
-1205 -1212 0
-1205 -1213 0
-1205 -1214 0
-1205 -1215 0
-1205 -1216 0
-1205 -1217 0
-1205 -1218 0
-1205 -1219 0
-1205 -1220 0
-1205 -1221 0
-1205 -1222 0
-1205 -1223 0
-1205 -1224 0
-1205 -1225 0
-1205 -1226 0
-1205 -1227 0
-1205 -1228 0
-1205 -1229 0
-1205 -1230 0
-1205 -1231 0
-1205 -1232 0
-1205 -1233 0
-1205 -1234 0
-1205 -1235 0
-1205 -1236 0
-1205 -1237 0
-1205 -1238 0
-1205 -1239 0
-1205 -1240 0
-1205 -1241 0
-1205 -1242 0
-1205 -1243 0
-1205 -1244 0
-1205 -1245 0
-1205 -1246 0
-1205 -1247 0
-1205 -1248 0
-1205 -1249 0
-1205 -1250 0
-1205 -1251 0
-1205 -1252 0
-1205 -1253 0
-1205 -1254 0
-1205 -1255 0
-1205 -1256 0
-1205 -1257 0
-1205 -1258 0
-1205 -1259 0
-1205 -1260 0
-1205 -1261 0
-1205 -1262 0
-1205 -1263 0
-1205 -1264 0
-1205 -1265 0
-1205 -1266 0
-1205 -1267 0
-1205 -1268 0
-1205 -1269 0
-1205 -1270 0
-1205 -1271 0
-1205 -1272 0
-1205 -1273 0
-1205 -1274 0
-1205 -1275 0
-1205 -1276 0
-1205 -1277 0
-1205 -1278 0
-1206 -1207 0
-1206 -1208 0
-1206 -1209 0
-1206 -1210 0
-1206 -1211 0
-1206 -1212 0
-1206 -1213 0
-1206 -1214 0
-1206 -1215 0
-1206 -1216 0
-1206 -1217 0
-1206 -1218 0
-1206 -1219 0
-1206 -1220 0
-1206 -1221 0
-1206 -1222 0
-1206 -1223 0
-1206 -1224 0
-1206 -1225 0
-1206 -1226 0
-1206 -1227 0
-1206 -1228 0
-1206 -1229 0
-1206 -1230 0
-1206 -1231 0
-1206 -1232 0
-1206 -1233 0
-1206 -1234 0
-1206 -1235 0
-1206 -1236 0
-1206 -1237 0
-1206 -1238 0
-1206 -1239 0
-1206 -1240 0
-1206 -1241 0
-1206 -1242 0
-1206 -1243 0
-1206 -1244 0
-1206 -1245 0
-1206 -1246 0
-1206 -1247 0
-1206 -1248 0
-1206 -1249 0
-1206 -1250 0
-1206 -1251 0
-1206 -1252 0
-1206 -1253 0
-1206 -1254 0
-1206 -1255 0
-1206 -1256 0
-1206 -1257 0
-1206 -1258 0
-1206 -1259 0
-1206 -1260 0
-1206 -1261 0
-1206 -1262 0
-1206 -1263 0
-1206 -1264 0
-1206 -1265 0
-1206 -1266 0
-1206 -1267 0
-1206 -1268 0
-1206 -1269 0
-1206 -1270 0
-1206 -1271 0
-1206 -1272 0
-1206 -1273 0
-1206 -1274 0
-1206 -1275 0
-1206 -1276 0
-1206 -1277 0
-1206 -1278 0
-1207 -1208 0
-1207 -1209 0
-1207 -1210 0
-1207 -1211 0
-1207 -1212 0
-1207 -1213 0
-1207 -1214 0
-1207 -1215 0
-1207 -1216 0
-1207 -1217 0
-1207 -1218 0
-1207 -1219 0
-1207 -1220 0
-1207 -1221 0
-1207 -1222 0
-1207 -1223 0
-1207 -1224 0
-1207 -1225 0
-1207 -1226 0
-1207 -1227 0
-1207 -1228 0
-1207 -1229 0
-1207 -1230 0
-1207 -1231 0
-1207 -1232 0
-1207 -1233 0
-1207 -1234 0
-1207 -1235 0
-1207 -1236 0
-1207 -1237 0
-1207 -1238 0
-1207 -1239 0
-1207 -1240 0
-1207 -1241 0
-1207 -1242 0
-1207 -1243 0
-1207 -1244 0
-1207 -1245 0
-1207 -1246 0
-1207 -1247 0
-1207 -1248 0
-1207 -1249 0
-1207 -1250 0
-1207 -1251 0
-1207 -1252 0
-1207 -1253 0
-1207 -1254 0
-1207 -1255 0
-1207 -1256 0
-1207 -1257 0
-1207 -1258 0
-1207 -1259 0
-1207 -1260 0
-1207 -1261 0
-1207 -1262 0
-1207 -1263 0
-1207 -1264 0
-1207 -1265 0
-1207 -1266 0
-1207 -1267 0
-1207 -1268 0
-1207 -1269 0
-1207 -1270 0
-1207 -1271 0
-1207 -1272 0
-1207 -1273 0
-1207 -1274 0
-1207 -1275 0
-1207 -1276 0
-1207 -1277 0
-1207 -1278 0
-1208 -1209 0
-1208 -1210 0
-1208 -1211 0
-1208 -1212 0
-1208 -1213 0
-1208 -1214 0
-1208 -1215 0
-1208 -1216 0
-1208 -1217 0
-1208 -1218 0
-1208 -1219 0
-1208 -1220 0
-1208 -1221 0
-1208 -1222 0
-1208 -1223 0
-1208 -1224 0
-1208 -1225 0
-1208 -1226 0
-1208 -1227 0
-1208 -1228 0
-1208 -1229 0
-1208 -1230 0
-1208 -1231 0
-1208 -1232 0
-1208 -1233 0
-1208 -1234 0
-1208 -1235 0
-1208 -1236 0
-1208 -1237 0
-1208 -1238 0
-1208 -1239 0
-1208 -1240 0
-1208 -1241 0
-1208 -1242 0
-1208 -1243 0
-1208 -1244 0
-1208 -1245 0
-1208 -1246 0
-1208 -1247 0
-1208 -1248 0
-1208 -1249 0
-1208 -1250 0
-1208 -1251 0
-1208 -1252 0
-1208 -1253 0
-1208 -1254 0
-1208 -1255 0
-1208 -1256 0
-1208 -1257 0
-1208 -1258 0
-1208 -1259 0
-1208 -1260 0
-1208 -1261 0
-1208 -1262 0
-1208 -1263 0
-1208 -1264 0
-1208 -1265 0
-1208 -1266 0
-1208 -1267 0
-1208 -1268 0
-1208 -1269 0
-1208 -1270 0
-1208 -1271 0
-1208 -1272 0
-1208 -1273 0
-1208 -1274 0
-1208 -1275 0
-1208 -1276 0
-1208 -1277 0
-1208 -1278 0
-1209 -1210 0
-1209 -1211 0
-1209 -1212 0
-1209 -1213 0
-1209 -1214 0
-1209 -1215 0
-1209 -1216 0
-1209 -1217 0
-1209 -1218 0
-1209 -1219 0
-1209 -1220 0
-1209 -1221 0
-1209 -1222 0
-1209 -1223 0
-1209 -1224 0
-1209 -1225 0
-1209 -1226 0
-1209 -1227 0
-1209 -1228 0
-1209 -1229 0
-1209 -1230 0
-1209 -1231 0
-1209 -1232 0
-1209 -1233 0
-1209 -1234 0
-1209 -1235 0
-1209 -1236 0
-1209 -1237 0
-1209 -1238 0
-1209 -1239 0
-1209 -1240 0
-1209 -1241 0
-1209 -1242 0
-1209 -1243 0
-1209 -1244 0
-1209 -1245 0
-1209 -1246 0
-1209 -1247 0
-1209 -1248 0
-1209 -1249 0
-1209 -1250 0
-1209 -1251 0
-1209 -1252 0
-1209 -1253 0
-1209 -1254 0
-1209 -1255 0
-1209 -1256 0
-1209 -1257 0
-1209 -1258 0
-1209 -1259 0
-1209 -1260 0
-1209 -1261 0
-1209 -1262 0
-1209 -1263 0
-1209 -1264 0
-1209 -1265 0
-1209 -1266 0
-1209 -1267 0
-1209 -1268 0
-1209 -1269 0
-1209 -1270 0
-1209 -1271 0
-1209 -1272 0
-1209 -1273 0
-1209 -1274 0
-1209 -1275 0
-1209 -1276 0
-1209 -1277 0
-1209 -1278 0
-1210 -1211 0
-1210 -1212 0
-1210 -1213 0
-1210 -1214 0
-1210 -1215 0
-1210 -1216 0
-1210 -1217 0
-1210 -1218 0
-1210 -1219 0
-1210 -1220 0
-1210 -1221 0
-1210 -1222 0
-1210 -1223 0
-1210 -1224 0
-1210 -1225 0
-1210 -1226 0
-1210 -1227 0
-1210 -1228 0
-1210 -1229 0
-1210 -1230 0
-1210 -1231 0
-1210 -1232 0
-1210 -1233 0
-1210 -1234 0
-1210 -1235 0
-1210 -1236 0
-1210 -1237 0
-1210 -1238 0
-1210 -1239 0
-1210 -1240 0
-1210 -1241 0
-1210 -1242 0
-1210 -1243 0
-1210 -1244 0
-1210 -1245 0
-1210 -1246 0
-1210 -1247 0
-1210 -1248 0
-1210 -1249 0
-1210 -1250 0
-1210 -1251 0
-1210 -1252 0
-1210 -1253 0
-1210 -1254 0
-1210 -1255 0
-1210 -1256 0
-1210 -1257 0
-1210 -1258 0
-1210 -1259 0
-1210 -1260 0
-1210 -1261 0
-1210 -1262 0
-1210 -1263 0
-1210 -1264 0
-1210 -1265 0
-1210 -1266 0
-1210 -1267 0
-1210 -1268 0
-1210 -1269 0
-1210 -1270 0
-1210 -1271 0
-1210 -1272 0
-1210 -1273 0
-1210 -1274 0
-1210 -1275 0
-1210 -1276 0
-1210 -1277 0
-1210 -1278 0
-1211 -1212 0
-1211 -1213 0
-1211 -1214 0
-1211 -1215 0
-1211 -1216 0
-1211 -1217 0
-1211 -1218 0
-1211 -1219 0
-1211 -1220 0
-1211 -1221 0
-1211 -1222 0
-1211 -1223 0
-1211 -1224 0
-1211 -1225 0
-1211 -1226 0
-1211 -1227 0
-1211 -1228 0
-1211 -1229 0
-1211 -1230 0
-1211 -1231 0
-1211 -1232 0
-1211 -1233 0
-1211 -1234 0
-1211 -1235 0
-1211 -1236 0
-1211 -1237 0
-1211 -1238 0
-1211 -1239 0
-1211 -1240 0
-1211 -1241 0
-1211 -1242 0
-1211 -1243 0
-1211 -1244 0
-1211 -1245 0
-1211 -1246 0
-1211 -1247 0
-1211 -1248 0
-1211 -1249 0
-1211 -1250 0
-1211 -1251 0
-1211 -1252 0
-1211 -1253 0
-1211 -1254 0
-1211 -1255 0
-1211 -1256 0
-1211 -1257 0
-1211 -1258 0
-1211 -1259 0
-1211 -1260 0
-1211 -1261 0
-1211 -1262 0
-1211 -1263 0
-1211 -1264 0
-1211 -1265 0
-1211 -1266 0
-1211 -1267 0
-1211 -1268 0
-1211 -1269 0
-1211 -1270 0
-1211 -1271 0
-1211 -1272 0
-1211 -1273 0
-1211 -1274 0
-1211 -1275 0
-1211 -1276 0
-1211 -1277 0
-1211 -1278 0
-1212 -1213 0
-1212 -1214 0
-1212 -1215 0
-1212 -1216 0
-1212 -1217 0
-1212 -1218 0
-1212 -1219 0
-1212 -1220 0
-1212 -1221 0
-1212 -1222 0
-1212 -1223 0
-1212 -1224 0
-1212 -1225 0
-1212 -1226 0
-1212 -1227 0
-1212 -1228 0
-1212 -1229 0
-1212 -1230 0
-1212 -1231 0
-1212 -1232 0
-1212 -1233 0
-1212 -1234 0
-1212 -1235 0
-1212 -1236 0
-1212 -1237 0
-1212 -1238 0
-1212 -1239 0
-1212 -1240 0
-1212 -1241 0
-1212 -1242 0
-1212 -1243 0
-1212 -1244 0
-1212 -1245 0
-1212 -1246 0
-1212 -1247 0
-1212 -1248 0
-1212 -1249 0
-1212 -1250 0
-1212 -1251 0
-1212 -1252 0
-1212 -1253 0
-1212 -1254 0
-1212 -1255 0
-1212 -1256 0
-1212 -1257 0
-1212 -1258 0
-1212 -1259 0
-1212 -1260 0
-1212 -1261 0
-1212 -1262 0
-1212 -1263 0
-1212 -1264 0
-1212 -1265 0
-1212 -1266 0
-1212 -1267 0
-1212 -1268 0
-1212 -1269 0
-1212 -1270 0
-1212 -1271 0
-1212 -1272 0
-1212 -1273 0
-1212 -1274 0
-1212 -1275 0
-1212 -1276 0
-1212 -1277 0
-1212 -1278 0
-1213 -1214 0
-1213 -1215 0
-1213 -1216 0
-1213 -1217 0
-1213 -1218 0
-1213 -1219 0
-1213 -1220 0
-1213 -1221 0
-1213 -1222 0
-1213 -1223 0
-1213 -1224 0
-1213 -1225 0
-1213 -1226 0
-1213 -1227 0
-1213 -1228 0
-1213 -1229 0
-1213 -1230 0
-1213 -1231 0
-1213 -1232 0
-1213 -1233 0
-1213 -1234 0
-1213 -1235 0
-1213 -1236 0
-1213 -1237 0
-1213 -1238 0
-1213 -1239 0
-1213 -1240 0
-1213 -1241 0
-1213 -1242 0
-1213 -1243 0
-1213 -1244 0
-1213 -1245 0
-1213 -1246 0
-1213 -1247 0
-1213 -1248 0
-1213 -1249 0
-1213 -1250 0
-1213 -1251 0
-1213 -1252 0
-1213 -1253 0
-1213 -1254 0
-1213 -1255 0
-1213 -1256 0
-1213 -1257 0
-1213 -1258 0
-1213 -1259 0
-1213 -1260 0
-1213 -1261 0
-1213 -1262 0
-1213 -1263 0
-1213 -1264 0
-1213 -1265 0
-1213 -1266 0
-1213 -1267 0
-1213 -1268 0
-1213 -1269 0
-1213 -1270 0
-1213 -1271 0
-1213 -1272 0
-1213 -1273 0
-1213 -1274 0
-1213 -1275 0
-1213 -1276 0
-1213 -1277 0
-1213 -1278 0
-1214 -1215 0
-1214 -1216 0
-1214 -1217 0
-1214 -1218 0
-1214 -1219 0
-1214 -1220 0
-1214 -1221 0
-1214 -1222 0
-1214 -1223 0
-1214 -1224 0
-1214 -1225 0
-1214 -1226 0
-1214 -1227 0
-1214 -1228 0
-1214 -1229 0
-1214 -1230 0
-1214 -1231 0
-1214 -1232 0
-1214 -1233 0
-1214 -1234 0
-1214 -1235 0
-1214 -1236 0
-1214 -1237 0
-1214 -1238 0
-1214 -1239 0
-1214 -1240 0
-1214 -1241 0
-1214 -1242 0
-1214 -1243 0
-1214 -1244 0
-1214 -1245 0
-1214 -1246 0
-1214 -1247 0
-1214 -1248 0
-1214 -1249 0
-1214 -1250 0
-1214 -1251 0
-1214 -1252 0
-1214 -1253 0
-1214 -1254 0
-1214 -1255 0
-1214 -1256 0
-1214 -1257 0
-1214 -1258 0
-1214 -1259 0
-1214 -1260 0
-1214 -1261 0
-1214 -1262 0
-1214 -1263 0
-1214 -1264 0
-1214 -1265 0
-1214 -1266 0
-1214 -1267 0
-1214 -1268 0
-1214 -1269 0
-1214 -1270 0
-1214 -1271 0
-1214 -1272 0
-1214 -1273 0
-1214 -1274 0
-1214 -1275 0
-1214 -1276 0
-1214 -1277 0
-1214 -1278 0
-1215 -1216 0
-1215 -1217 0
-1215 -1218 0
-1215 -1219 0
-1215 -1220 0
-1215 -1221 0
-1215 -1222 0
-1215 -1223 0
-1215 -1224 0
-1215 -1225 0
-1215 -1226 0
-1215 -1227 0
-1215 -1228 0
-1215 -1229 0
-1215 -1230 0
-1215 -1231 0
-1215 -1232 0
-1215 -1233 0
-1215 -1234 0
-1215 -1235 0
-1215 -1236 0
-1215 -1237 0
-1215 -1238 0
-1215 -1239 0
-1215 -1240 0
-1215 -1241 0
-1215 -1242 0
-1215 -1243 0
-1215 -1244 0
-1215 -1245 0
-1215 -1246 0
-1215 -1247 0
-1215 -1248 0
-1215 -1249 0
-1215 -1250 0
-1215 -1251 0
-1215 -1252 0
-1215 -1253 0
-1215 -1254 0
-1215 -1255 0
-1215 -1256 0
-1215 -1257 0
-1215 -1258 0
-1215 -1259 0
-1215 -1260 0
-1215 -1261 0
-1215 -1262 0
-1215 -1263 0
-1215 -1264 0
-1215 -1265 0
-1215 -1266 0
-1215 -1267 0
-1215 -1268 0
-1215 -1269 0
-1215 -1270 0
-1215 -1271 0
-1215 -1272 0
-1215 -1273 0
-1215 -1274 0
-1215 -1275 0
-1215 -1276 0
-1215 -1277 0
-1215 -1278 0
-1216 -1217 0
-1216 -1218 0
-1216 -1219 0
-1216 -1220 0
-1216 -1221 0
-1216 -1222 0
-1216 -1223 0
-1216 -1224 0
-1216 -1225 0
-1216 -1226 0
-1216 -1227 0
-1216 -1228 0
-1216 -1229 0
-1216 -1230 0
-1216 -1231 0
-1216 -1232 0
-1216 -1233 0
-1216 -1234 0
-1216 -1235 0
-1216 -1236 0
-1216 -1237 0
-1216 -1238 0
-1216 -1239 0
-1216 -1240 0
-1216 -1241 0
-1216 -1242 0
-1216 -1243 0
-1216 -1244 0
-1216 -1245 0
-1216 -1246 0
-1216 -1247 0
-1216 -1248 0
-1216 -1249 0
-1216 -1250 0
-1216 -1251 0
-1216 -1252 0
-1216 -1253 0
-1216 -1254 0
-1216 -1255 0
-1216 -1256 0
-1216 -1257 0
-1216 -1258 0
-1216 -1259 0
-1216 -1260 0
-1216 -1261 0
-1216 -1262 0
-1216 -1263 0
-1216 -1264 0
-1216 -1265 0
-1216 -1266 0
-1216 -1267 0
-1216 -1268 0
-1216 -1269 0
-1216 -1270 0
-1216 -1271 0
-1216 -1272 0
-1216 -1273 0
-1216 -1274 0
-1216 -1275 0
-1216 -1276 0
-1216 -1277 0
-1216 -1278 0
-1217 -1218 0
-1217 -1219 0
-1217 -1220 0
-1217 -1221 0
-1217 -1222 0
-1217 -1223 0
-1217 -1224 0
-1217 -1225 0
-1217 -1226 0
-1217 -1227 0
-1217 -1228 0
-1217 -1229 0
-1217 -1230 0
-1217 -1231 0
-1217 -1232 0
-1217 -1233 0
-1217 -1234 0
-1217 -1235 0
-1217 -1236 0
-1217 -1237 0
-1217 -1238 0
-1217 -1239 0
-1217 -1240 0
-1217 -1241 0
-1217 -1242 0
-1217 -1243 0
-1217 -1244 0
-1217 -1245 0
-1217 -1246 0
-1217 -1247 0
-1217 -1248 0
-1217 -1249 0
-1217 -1250 0
-1217 -1251 0
-1217 -1252 0
-1217 -1253 0
-1217 -1254 0
-1217 -1255 0
-1217 -1256 0
-1217 -1257 0
-1217 -1258 0
-1217 -1259 0
-1217 -1260 0
-1217 -1261 0
-1217 -1262 0
-1217 -1263 0
-1217 -1264 0
-1217 -1265 0
-1217 -1266 0
-1217 -1267 0
-1217 -1268 0
-1217 -1269 0
-1217 -1270 0
-1217 -1271 0
-1217 -1272 0
-1217 -1273 0
-1217 -1274 0
-1217 -1275 0
-1217 -1276 0
-1217 -1277 0
-1217 -1278 0
-1218 -1219 0
-1218 -1220 0
-1218 -1221 0
-1218 -1222 0
-1218 -1223 0
-1218 -1224 0
-1218 -1225 0
-1218 -1226 0
-1218 -1227 0
-1218 -1228 0
-1218 -1229 0
-1218 -1230 0
-1218 -1231 0
-1218 -1232 0
-1218 -1233 0
-1218 -1234 0
-1218 -1235 0
-1218 -1236 0
-1218 -1237 0
-1218 -1238 0
-1218 -1239 0
-1218 -1240 0
-1218 -1241 0
-1218 -1242 0
-1218 -1243 0
-1218 -1244 0
-1218 -1245 0
-1218 -1246 0
-1218 -1247 0
-1218 -1248 0
-1218 -1249 0
-1218 -1250 0
-1218 -1251 0
-1218 -1252 0
-1218 -1253 0
-1218 -1254 0
-1218 -1255 0
-1218 -1256 0
-1218 -1257 0
-1218 -1258 0
-1218 -1259 0
-1218 -1260 0
-1218 -1261 0
-1218 -1262 0
-1218 -1263 0
-1218 -1264 0
-1218 -1265 0
-1218 -1266 0
-1218 -1267 0
-1218 -1268 0
-1218 -1269 0
-1218 -1270 0
-1218 -1271 0
-1218 -1272 0
-1218 -1273 0
-1218 -1274 0
-1218 -1275 0
-1218 -1276 0
-1218 -1277 0
-1218 -1278 0
-1219 -1220 0
-1219 -1221 0
-1219 -1222 0
-1219 -1223 0
-1219 -1224 0
-1219 -1225 0
-1219 -1226 0
-1219 -1227 0
-1219 -1228 0
-1219 -1229 0
-1219 -1230 0
-1219 -1231 0
-1219 -1232 0
-1219 -1233 0
-1219 -1234 0
-1219 -1235 0
-1219 -1236 0
-1219 -1237 0
-1219 -1238 0
-1219 -1239 0
-1219 -1240 0
-1219 -1241 0
-1219 -1242 0
-1219 -1243 0
-1219 -1244 0
-1219 -1245 0
-1219 -1246 0
-1219 -1247 0
-1219 -1248 0
-1219 -1249 0
-1219 -1250 0
-1219 -1251 0
-1219 -1252 0
-1219 -1253 0
-1219 -1254 0
-1219 -1255 0
-1219 -1256 0
-1219 -1257 0
-1219 -1258 0
-1219 -1259 0
-1219 -1260 0
-1219 -1261 0
-1219 -1262 0
-1219 -1263 0
-1219 -1264 0
-1219 -1265 0
-1219 -1266 0
-1219 -1267 0
-1219 -1268 0
-1219 -1269 0
-1219 -1270 0
-1219 -1271 0
-1219 -1272 0
-1219 -1273 0
-1219 -1274 0
-1219 -1275 0
-1219 -1276 0
-1219 -1277 0
-1219 -1278 0
-1220 -1221 0
-1220 -1222 0
-1220 -1223 0
-1220 -1224 0
-1220 -1225 0
-1220 -1226 0
-1220 -1227 0
-1220 -1228 0
-1220 -1229 0
-1220 -1230 0
-1220 -1231 0
-1220 -1232 0
-1220 -1233 0
-1220 -1234 0
-1220 -1235 0
-1220 -1236 0
-1220 -1237 0
-1220 -1238 0
-1220 -1239 0
-1220 -1240 0
-1220 -1241 0
-1220 -1242 0
-1220 -1243 0
-1220 -1244 0
-1220 -1245 0
-1220 -1246 0
-1220 -1247 0
-1220 -1248 0
-1220 -1249 0
-1220 -1250 0
-1220 -1251 0
-1220 -1252 0
-1220 -1253 0
-1220 -1254 0
-1220 -1255 0
-1220 -1256 0
-1220 -1257 0
-1220 -1258 0
-1220 -1259 0
-1220 -1260 0
-1220 -1261 0
-1220 -1262 0
-1220 -1263 0
-1220 -1264 0
-1220 -1265 0
-1220 -1266 0
-1220 -1267 0
-1220 -1268 0
-1220 -1269 0
-1220 -1270 0
-1220 -1271 0
-1220 -1272 0
-1220 -1273 0
-1220 -1274 0
-1220 -1275 0
-1220 -1276 0
-1220 -1277 0
-1220 -1278 0
-1221 -1222 0
-1221 -1223 0
-1221 -1224 0
-1221 -1225 0
-1221 -1226 0
-1221 -1227 0
-1221 -1228 0
-1221 -1229 0
-1221 -1230 0
-1221 -1231 0
-1221 -1232 0
-1221 -1233 0
-1221 -1234 0
-1221 -1235 0
-1221 -1236 0
-1221 -1237 0
-1221 -1238 0
-1221 -1239 0
-1221 -1240 0
-1221 -1241 0
-1221 -1242 0
-1221 -1243 0
-1221 -1244 0
-1221 -1245 0
-1221 -1246 0
-1221 -1247 0
-1221 -1248 0
-1221 -1249 0
-1221 -1250 0
-1221 -1251 0
-1221 -1252 0
-1221 -1253 0
-1221 -1254 0
-1221 -1255 0
-1221 -1256 0
-1221 -1257 0
-1221 -1258 0
-1221 -1259 0
-1221 -1260 0
-1221 -1261 0
-1221 -1262 0
-1221 -1263 0
-1221 -1264 0
-1221 -1265 0
-1221 -1266 0
-1221 -1267 0
-1221 -1268 0
-1221 -1269 0
-1221 -1270 0
-1221 -1271 0
-1221 -1272 0
-1221 -1273 0
-1221 -1274 0
-1221 -1275 0
-1221 -1276 0
-1221 -1277 0
-1221 -1278 0
-1222 -1223 0
-1222 -1224 0
-1222 -1225 0
-1222 -1226 0
-1222 -1227 0
-1222 -1228 0
-1222 -1229 0
-1222 -1230 0
-1222 -1231 0
-1222 -1232 0
-1222 -1233 0
-1222 -1234 0
-1222 -1235 0
-1222 -1236 0
-1222 -1237 0
-1222 -1238 0
-1222 -1239 0
-1222 -1240 0
-1222 -1241 0
-1222 -1242 0
-1222 -1243 0
-1222 -1244 0
-1222 -1245 0
-1222 -1246 0
-1222 -1247 0
-1222 -1248 0
-1222 -1249 0
-1222 -1250 0
-1222 -1251 0
-1222 -1252 0
-1222 -1253 0
-1222 -1254 0
-1222 -1255 0
-1222 -1256 0
-1222 -1257 0
-1222 -1258 0
-1222 -1259 0
-1222 -1260 0
-1222 -1261 0
-1222 -1262 0
-1222 -1263 0
-1222 -1264 0
-1222 -1265 0
-1222 -1266 0
-1222 -1267 0
-1222 -1268 0
-1222 -1269 0
-1222 -1270 0
-1222 -1271 0
-1222 -1272 0
-1222 -1273 0
-1222 -1274 0
-1222 -1275 0
-1222 -1276 0
-1222 -1277 0
-1222 -1278 0
-1223 -1224 0
-1223 -1225 0
-1223 -1226 0
-1223 -1227 0
-1223 -1228 0
-1223 -1229 0
-1223 -1230 0
-1223 -1231 0
-1223 -1232 0
-1223 -1233 0
-1223 -1234 0
-1223 -1235 0
-1223 -1236 0
-1223 -1237 0
-1223 -1238 0
-1223 -1239 0
-1223 -1240 0
-1223 -1241 0
-1223 -1242 0
-1223 -1243 0
-1223 -1244 0
-1223 -1245 0
-1223 -1246 0
-1223 -1247 0
-1223 -1248 0
-1223 -1249 0
-1223 -1250 0
-1223 -1251 0
-1223 -1252 0
-1223 -1253 0
-1223 -1254 0
-1223 -1255 0
-1223 -1256 0
-1223 -1257 0
-1223 -1258 0
-1223 -1259 0
-1223 -1260 0
-1223 -1261 0
-1223 -1262 0
-1223 -1263 0
-1223 -1264 0
-1223 -1265 0
-1223 -1266 0
-1223 -1267 0
-1223 -1268 0
-1223 -1269 0
-1223 -1270 0
-1223 -1271 0
-1223 -1272 0
-1223 -1273 0
-1223 -1274 0
-1223 -1275 0
-1223 -1276 0
-1223 -1277 0
-1223 -1278 0
-1224 -1225 0
-1224 -1226 0
-1224 -1227 0
-1224 -1228 0
-1224 -1229 0
-1224 -1230 0
-1224 -1231 0
-1224 -1232 0
-1224 -1233 0
-1224 -1234 0
-1224 -1235 0
-1224 -1236 0
-1224 -1237 0
-1224 -1238 0
-1224 -1239 0
-1224 -1240 0
-1224 -1241 0
-1224 -1242 0
-1224 -1243 0
-1224 -1244 0
-1224 -1245 0
-1224 -1246 0
-1224 -1247 0
-1224 -1248 0
-1224 -1249 0
-1224 -1250 0
-1224 -1251 0
-1224 -1252 0
-1224 -1253 0
-1224 -1254 0
-1224 -1255 0
-1224 -1256 0
-1224 -1257 0
-1224 -1258 0
-1224 -1259 0
-1224 -1260 0
-1224 -1261 0
-1224 -1262 0
-1224 -1263 0
-1224 -1264 0
-1224 -1265 0
-1224 -1266 0
-1224 -1267 0
-1224 -1268 0
-1224 -1269 0
-1224 -1270 0
-1224 -1271 0
-1224 -1272 0
-1224 -1273 0
-1224 -1274 0
-1224 -1275 0
-1224 -1276 0
-1224 -1277 0
-1224 -1278 0
-1225 -1226 0
-1225 -1227 0
-1225 -1228 0
-1225 -1229 0
-1225 -1230 0
-1225 -1231 0
-1225 -1232 0
-1225 -1233 0
-1225 -1234 0
-1225 -1235 0
-1225 -1236 0
-1225 -1237 0
-1225 -1238 0
-1225 -1239 0
-1225 -1240 0
-1225 -1241 0
-1225 -1242 0
-1225 -1243 0
-1225 -1244 0
-1225 -1245 0
-1225 -1246 0
-1225 -1247 0
-1225 -1248 0
-1225 -1249 0
-1225 -1250 0
-1225 -1251 0
-1225 -1252 0
-1225 -1253 0
-1225 -1254 0
-1225 -1255 0
-1225 -1256 0
-1225 -1257 0
-1225 -1258 0
-1225 -1259 0
-1225 -1260 0
-1225 -1261 0
-1225 -1262 0
-1225 -1263 0
-1225 -1264 0
-1225 -1265 0
-1225 -1266 0
-1225 -1267 0
-1225 -1268 0
-1225 -1269 0
-1225 -1270 0
-1225 -1271 0
-1225 -1272 0
-1225 -1273 0
-1225 -1274 0
-1225 -1275 0
-1225 -1276 0
-1225 -1277 0
-1225 -1278 0
-1226 -1227 0
-1226 -1228 0
-1226 -1229 0
-1226 -1230 0
-1226 -1231 0
-1226 -1232 0
-1226 -1233 0
-1226 -1234 0
-1226 -1235 0
-1226 -1236 0
-1226 -1237 0
-1226 -1238 0
-1226 -1239 0
-1226 -1240 0
-1226 -1241 0
-1226 -1242 0
-1226 -1243 0
-1226 -1244 0
-1226 -1245 0
-1226 -1246 0
-1226 -1247 0
-1226 -1248 0
-1226 -1249 0
-1226 -1250 0
-1226 -1251 0
-1226 -1252 0
-1226 -1253 0
-1226 -1254 0
-1226 -1255 0
-1226 -1256 0
-1226 -1257 0
-1226 -1258 0
-1226 -1259 0
-1226 -1260 0
-1226 -1261 0
-1226 -1262 0
-1226 -1263 0
-1226 -1264 0
-1226 -1265 0
-1226 -1266 0
-1226 -1267 0
-1226 -1268 0
-1226 -1269 0
-1226 -1270 0
-1226 -1271 0
-1226 -1272 0
-1226 -1273 0
-1226 -1274 0
-1226 -1275 0
-1226 -1276 0
-1226 -1277 0
-1226 -1278 0
-1227 -1228 0
-1227 -1229 0
-1227 -1230 0
-1227 -1231 0
-1227 -1232 0
-1227 -1233 0
-1227 -1234 0
-1227 -1235 0
-1227 -1236 0
-1227 -1237 0
-1227 -1238 0
-1227 -1239 0
-1227 -1240 0
-1227 -1241 0
-1227 -1242 0
-1227 -1243 0
-1227 -1244 0
-1227 -1245 0
-1227 -1246 0
-1227 -1247 0
-1227 -1248 0
-1227 -1249 0
-1227 -1250 0
-1227 -1251 0
-1227 -1252 0
-1227 -1253 0
-1227 -1254 0
-1227 -1255 0
-1227 -1256 0
-1227 -1257 0
-1227 -1258 0
-1227 -1259 0
-1227 -1260 0
-1227 -1261 0
-1227 -1262 0
-1227 -1263 0
-1227 -1264 0
-1227 -1265 0
-1227 -1266 0
-1227 -1267 0
-1227 -1268 0
-1227 -1269 0
-1227 -1270 0
-1227 -1271 0
-1227 -1272 0
-1227 -1273 0
-1227 -1274 0
-1227 -1275 0
-1227 -1276 0
-1227 -1277 0
-1227 -1278 0
-1228 -1229 0
-1228 -1230 0
-1228 -1231 0
-1228 -1232 0
-1228 -1233 0
-1228 -1234 0
-1228 -1235 0
-1228 -1236 0
-1228 -1237 0
-1228 -1238 0
-1228 -1239 0
-1228 -1240 0
-1228 -1241 0
-1228 -1242 0
-1228 -1243 0
-1228 -1244 0
-1228 -1245 0
-1228 -1246 0
-1228 -1247 0
-1228 -1248 0
-1228 -1249 0
-1228 -1250 0
-1228 -1251 0
-1228 -1252 0
-1228 -1253 0
-1228 -1254 0
-1228 -1255 0
-1228 -1256 0
-1228 -1257 0
-1228 -1258 0
-1228 -1259 0
-1228 -1260 0
-1228 -1261 0
-1228 -1262 0
-1228 -1263 0
-1228 -1264 0
-1228 -1265 0
-1228 -1266 0
-1228 -1267 0
-1228 -1268 0
-1228 -1269 0
-1228 -1270 0
-1228 -1271 0
-1228 -1272 0
-1228 -1273 0
-1228 -1274 0
-1228 -1275 0
-1228 -1276 0
-1228 -1277 0
-1228 -1278 0
-1229 -1230 0
-1229 -1231 0
-1229 -1232 0
-1229 -1233 0
-1229 -1234 0
-1229 -1235 0
-1229 -1236 0
-1229 -1237 0
-1229 -1238 0
-1229 -1239 0
-1229 -1240 0
-1229 -1241 0
-1229 -1242 0
-1229 -1243 0
-1229 -1244 0
-1229 -1245 0
-1229 -1246 0
-1229 -1247 0
-1229 -1248 0
-1229 -1249 0
-1229 -1250 0
-1229 -1251 0
-1229 -1252 0
-1229 -1253 0
-1229 -1254 0
-1229 -1255 0
-1229 -1256 0
-1229 -1257 0
-1229 -1258 0
-1229 -1259 0
-1229 -1260 0
-1229 -1261 0
-1229 -1262 0
-1229 -1263 0
-1229 -1264 0
-1229 -1265 0
-1229 -1266 0
-1229 -1267 0
-1229 -1268 0
-1229 -1269 0
-1229 -1270 0
-1229 -1271 0
-1229 -1272 0
-1229 -1273 0
-1229 -1274 0
-1229 -1275 0
-1229 -1276 0
-1229 -1277 0
-1229 -1278 0
-1230 -1231 0
-1230 -1232 0
-1230 -1233 0
-1230 -1234 0
-1230 -1235 0
-1230 -1236 0
-1230 -1237 0
-1230 -1238 0
-1230 -1239 0
-1230 -1240 0
-1230 -1241 0
-1230 -1242 0
-1230 -1243 0
-1230 -1244 0
-1230 -1245 0
-1230 -1246 0
-1230 -1247 0
-1230 -1248 0
-1230 -1249 0
-1230 -1250 0
-1230 -1251 0
-1230 -1252 0
-1230 -1253 0
-1230 -1254 0
-1230 -1255 0
-1230 -1256 0
-1230 -1257 0
-1230 -1258 0
-1230 -1259 0
-1230 -1260 0
-1230 -1261 0
-1230 -1262 0
-1230 -1263 0
-1230 -1264 0
-1230 -1265 0
-1230 -1266 0
-1230 -1267 0
-1230 -1268 0
-1230 -1269 0
-1230 -1270 0
-1230 -1271 0
-1230 -1272 0
-1230 -1273 0
-1230 -1274 0
-1230 -1275 0
-1230 -1276 0
-1230 -1277 0
-1230 -1278 0
-1231 -1232 0
-1231 -1233 0
-1231 -1234 0
-1231 -1235 0
-1231 -1236 0
-1231 -1237 0
-1231 -1238 0
-1231 -1239 0
-1231 -1240 0
-1231 -1241 0
-1231 -1242 0
-1231 -1243 0
-1231 -1244 0
-1231 -1245 0
-1231 -1246 0
-1231 -1247 0
-1231 -1248 0
-1231 -1249 0
-1231 -1250 0
-1231 -1251 0
-1231 -1252 0
-1231 -1253 0
-1231 -1254 0
-1231 -1255 0
-1231 -1256 0
-1231 -1257 0
-1231 -1258 0
-1231 -1259 0
-1231 -1260 0
-1231 -1261 0
-1231 -1262 0
-1231 -1263 0
-1231 -1264 0
-1231 -1265 0
-1231 -1266 0
-1231 -1267 0
-1231 -1268 0
-1231 -1269 0
-1231 -1270 0
-1231 -1271 0
-1231 -1272 0
-1231 -1273 0
-1231 -1274 0
-1231 -1275 0
-1231 -1276 0
-1231 -1277 0
-1231 -1278 0
-1232 -1233 0
-1232 -1234 0
-1232 -1235 0
-1232 -1236 0
-1232 -1237 0
-1232 -1238 0
-1232 -1239 0
-1232 -1240 0
-1232 -1241 0
-1232 -1242 0
-1232 -1243 0
-1232 -1244 0
-1232 -1245 0
-1232 -1246 0
-1232 -1247 0
-1232 -1248 0
-1232 -1249 0
-1232 -1250 0
-1232 -1251 0
-1232 -1252 0
-1232 -1253 0
-1232 -1254 0
-1232 -1255 0
-1232 -1256 0
-1232 -1257 0
-1232 -1258 0
-1232 -1259 0
-1232 -1260 0
-1232 -1261 0
-1232 -1262 0
-1232 -1263 0
-1232 -1264 0
-1232 -1265 0
-1232 -1266 0
-1232 -1267 0
-1232 -1268 0
-1232 -1269 0
-1232 -1270 0
-1232 -1271 0
-1232 -1272 0
-1232 -1273 0
-1232 -1274 0
-1232 -1275 0
-1232 -1276 0
-1232 -1277 0
-1232 -1278 0
-1233 -1234 0
-1233 -1235 0
-1233 -1236 0
-1233 -1237 0
-1233 -1238 0
-1233 -1239 0
-1233 -1240 0
-1233 -1241 0
-1233 -1242 0
-1233 -1243 0
-1233 -1244 0
-1233 -1245 0
-1233 -1246 0
-1233 -1247 0
-1233 -1248 0
-1233 -1249 0
-1233 -1250 0
-1233 -1251 0
-1233 -1252 0
-1233 -1253 0
-1233 -1254 0
-1233 -1255 0
-1233 -1256 0
-1233 -1257 0
-1233 -1258 0
-1233 -1259 0
-1233 -1260 0
-1233 -1261 0
-1233 -1262 0
-1233 -1263 0
-1233 -1264 0
-1233 -1265 0
-1233 -1266 0
-1233 -1267 0
-1233 -1268 0
-1233 -1269 0
-1233 -1270 0
-1233 -1271 0
-1233 -1272 0
-1233 -1273 0
-1233 -1274 0
-1233 -1275 0
-1233 -1276 0
-1233 -1277 0
-1233 -1278 0
-1234 -1235 0
-1234 -1236 0
-1234 -1237 0
-1234 -1238 0
-1234 -1239 0
-1234 -1240 0
-1234 -1241 0
-1234 -1242 0
-1234 -1243 0
-1234 -1244 0
-1234 -1245 0
-1234 -1246 0
-1234 -1247 0
-1234 -1248 0
-1234 -1249 0
-1234 -1250 0
-1234 -1251 0
-1234 -1252 0
-1234 -1253 0
-1234 -1254 0
-1234 -1255 0
-1234 -1256 0
-1234 -1257 0
-1234 -1258 0
-1234 -1259 0
-1234 -1260 0
-1234 -1261 0
-1234 -1262 0
-1234 -1263 0
-1234 -1264 0
-1234 -1265 0
-1234 -1266 0
-1234 -1267 0
-1234 -1268 0
-1234 -1269 0
-1234 -1270 0
-1234 -1271 0
-1234 -1272 0
-1234 -1273 0
-1234 -1274 0
-1234 -1275 0
-1234 -1276 0
-1234 -1277 0
-1234 -1278 0
-1235 -1236 0
-1235 -1237 0
-1235 -1238 0
-1235 -1239 0
-1235 -1240 0
-1235 -1241 0
-1235 -1242 0
-1235 -1243 0
-1235 -1244 0
-1235 -1245 0
-1235 -1246 0
-1235 -1247 0
-1235 -1248 0
-1235 -1249 0
-1235 -1250 0
-1235 -1251 0
-1235 -1252 0
-1235 -1253 0
-1235 -1254 0
-1235 -1255 0
-1235 -1256 0
-1235 -1257 0
-1235 -1258 0
-1235 -1259 0
-1235 -1260 0
-1235 -1261 0
-1235 -1262 0
-1235 -1263 0
-1235 -1264 0
-1235 -1265 0
-1235 -1266 0
-1235 -1267 0
-1235 -1268 0
-1235 -1269 0
-1235 -1270 0
-1235 -1271 0
-1235 -1272 0
-1235 -1273 0
-1235 -1274 0
-1235 -1275 0
-1235 -1276 0
-1235 -1277 0
-1235 -1278 0
-1236 -1237 0
-1236 -1238 0
-1236 -1239 0
-1236 -1240 0
-1236 -1241 0
-1236 -1242 0
-1236 -1243 0
-1236 -1244 0
-1236 -1245 0
-1236 -1246 0
-1236 -1247 0
-1236 -1248 0
-1236 -1249 0
-1236 -1250 0
-1236 -1251 0
-1236 -1252 0
-1236 -1253 0
-1236 -1254 0
-1236 -1255 0
-1236 -1256 0
-1236 -1257 0
-1236 -1258 0
-1236 -1259 0
-1236 -1260 0
-1236 -1261 0
-1236 -1262 0
-1236 -1263 0
-1236 -1264 0
-1236 -1265 0
-1236 -1266 0
-1236 -1267 0
-1236 -1268 0
-1236 -1269 0
-1236 -1270 0
-1236 -1271 0
-1236 -1272 0
-1236 -1273 0
-1236 -1274 0
-1236 -1275 0
-1236 -1276 0
-1236 -1277 0
-1236 -1278 0
-1237 -1238 0
-1237 -1239 0
-1237 -1240 0
-1237 -1241 0
-1237 -1242 0
-1237 -1243 0
-1237 -1244 0
-1237 -1245 0
-1237 -1246 0
-1237 -1247 0
-1237 -1248 0
-1237 -1249 0
-1237 -1250 0
-1237 -1251 0
-1237 -1252 0
-1237 -1253 0
-1237 -1254 0
-1237 -1255 0
-1237 -1256 0
-1237 -1257 0
-1237 -1258 0
-1237 -1259 0
-1237 -1260 0
-1237 -1261 0
-1237 -1262 0
-1237 -1263 0
-1237 -1264 0
-1237 -1265 0
-1237 -1266 0
-1237 -1267 0
-1237 -1268 0
-1237 -1269 0
-1237 -1270 0
-1237 -1271 0
-1237 -1272 0
-1237 -1273 0
-1237 -1274 0
-1237 -1275 0
-1237 -1276 0
-1237 -1277 0
-1237 -1278 0
-1238 -1239 0
-1238 -1240 0
-1238 -1241 0
-1238 -1242 0
-1238 -1243 0
-1238 -1244 0
-1238 -1245 0
-1238 -1246 0
-1238 -1247 0
-1238 -1248 0
-1238 -1249 0
-1238 -1250 0
-1238 -1251 0
-1238 -1252 0
-1238 -1253 0
-1238 -1254 0
-1238 -1255 0
-1238 -1256 0
-1238 -1257 0
-1238 -1258 0
-1238 -1259 0
-1238 -1260 0
-1238 -1261 0
-1238 -1262 0
-1238 -1263 0
-1238 -1264 0
-1238 -1265 0
-1238 -1266 0
-1238 -1267 0
-1238 -1268 0
-1238 -1269 0
-1238 -1270 0
-1238 -1271 0
-1238 -1272 0
-1238 -1273 0
-1238 -1274 0
-1238 -1275 0
-1238 -1276 0
-1238 -1277 0
-1238 -1278 0
-1239 -1240 0
-1239 -1241 0
-1239 -1242 0
-1239 -1243 0
-1239 -1244 0
-1239 -1245 0
-1239 -1246 0
-1239 -1247 0
-1239 -1248 0
-1239 -1249 0
-1239 -1250 0
-1239 -1251 0
-1239 -1252 0
-1239 -1253 0
-1239 -1254 0
-1239 -1255 0
-1239 -1256 0
-1239 -1257 0
-1239 -1258 0
-1239 -1259 0
-1239 -1260 0
-1239 -1261 0
-1239 -1262 0
-1239 -1263 0
-1239 -1264 0
-1239 -1265 0
-1239 -1266 0
-1239 -1267 0
-1239 -1268 0
-1239 -1269 0
-1239 -1270 0
-1239 -1271 0
-1239 -1272 0
-1239 -1273 0
-1239 -1274 0
-1239 -1275 0
-1239 -1276 0
-1239 -1277 0
-1239 -1278 0
-1240 -1241 0
-1240 -1242 0
-1240 -1243 0
-1240 -1244 0
-1240 -1245 0
-1240 -1246 0
-1240 -1247 0
-1240 -1248 0
-1240 -1249 0
-1240 -1250 0
-1240 -1251 0
-1240 -1252 0
-1240 -1253 0
-1240 -1254 0
-1240 -1255 0
-1240 -1256 0
-1240 -1257 0
-1240 -1258 0
-1240 -1259 0
-1240 -1260 0
-1240 -1261 0
-1240 -1262 0
-1240 -1263 0
-1240 -1264 0
-1240 -1265 0
-1240 -1266 0
-1240 -1267 0
-1240 -1268 0
-1240 -1269 0
-1240 -1270 0
-1240 -1271 0
-1240 -1272 0
-1240 -1273 0
-1240 -1274 0
-1240 -1275 0
-1240 -1276 0
-1240 -1277 0
-1240 -1278 0
-1241 -1242 0
-1241 -1243 0
-1241 -1244 0
-1241 -1245 0
-1241 -1246 0
-1241 -1247 0
-1241 -1248 0
-1241 -1249 0
-1241 -1250 0
-1241 -1251 0
-1241 -1252 0
-1241 -1253 0
-1241 -1254 0
-1241 -1255 0
-1241 -1256 0
-1241 -1257 0
-1241 -1258 0
-1241 -1259 0
-1241 -1260 0
-1241 -1261 0
-1241 -1262 0
-1241 -1263 0
-1241 -1264 0
-1241 -1265 0
-1241 -1266 0
-1241 -1267 0
-1241 -1268 0
-1241 -1269 0
-1241 -1270 0
-1241 -1271 0
-1241 -1272 0
-1241 -1273 0
-1241 -1274 0
-1241 -1275 0
-1241 -1276 0
-1241 -1277 0
-1241 -1278 0
-1242 -1243 0
-1242 -1244 0
-1242 -1245 0
-1242 -1246 0
-1242 -1247 0
-1242 -1248 0
-1242 -1249 0
-1242 -1250 0
-1242 -1251 0
-1242 -1252 0
-1242 -1253 0
-1242 -1254 0
-1242 -1255 0
-1242 -1256 0
-1242 -1257 0
-1242 -1258 0
-1242 -1259 0
-1242 -1260 0
-1242 -1261 0
-1242 -1262 0
-1242 -1263 0
-1242 -1264 0
-1242 -1265 0
-1242 -1266 0
-1242 -1267 0
-1242 -1268 0
-1242 -1269 0
-1242 -1270 0
-1242 -1271 0
-1242 -1272 0
-1242 -1273 0
-1242 -1274 0
-1242 -1275 0
-1242 -1276 0
-1242 -1277 0
-1242 -1278 0
-1243 -1244 0
-1243 -1245 0
-1243 -1246 0
-1243 -1247 0
-1243 -1248 0
-1243 -1249 0
-1243 -1250 0
-1243 -1251 0
-1243 -1252 0
-1243 -1253 0
-1243 -1254 0
-1243 -1255 0
-1243 -1256 0
-1243 -1257 0
-1243 -1258 0
-1243 -1259 0
-1243 -1260 0
-1243 -1261 0
-1243 -1262 0
-1243 -1263 0
-1243 -1264 0
-1243 -1265 0
-1243 -1266 0
-1243 -1267 0
-1243 -1268 0
-1243 -1269 0
-1243 -1270 0
-1243 -1271 0
-1243 -1272 0
-1243 -1273 0
-1243 -1274 0
-1243 -1275 0
-1243 -1276 0
-1243 -1277 0
-1243 -1278 0
-1244 -1245 0
-1244 -1246 0
-1244 -1247 0
-1244 -1248 0
-1244 -1249 0
-1244 -1250 0
-1244 -1251 0
-1244 -1252 0
-1244 -1253 0
-1244 -1254 0
-1244 -1255 0
-1244 -1256 0
-1244 -1257 0
-1244 -1258 0
-1244 -1259 0
-1244 -1260 0
-1244 -1261 0
-1244 -1262 0
-1244 -1263 0
-1244 -1264 0
-1244 -1265 0
-1244 -1266 0
-1244 -1267 0
-1244 -1268 0
-1244 -1269 0
-1244 -1270 0
-1244 -1271 0
-1244 -1272 0
-1244 -1273 0
-1244 -1274 0
-1244 -1275 0
-1244 -1276 0
-1244 -1277 0
-1244 -1278 0
-1245 -1246 0
-1245 -1247 0
-1245 -1248 0
-1245 -1249 0
-1245 -1250 0
-1245 -1251 0
-1245 -1252 0
-1245 -1253 0
-1245 -1254 0
-1245 -1255 0
-1245 -1256 0
-1245 -1257 0
-1245 -1258 0
-1245 -1259 0
-1245 -1260 0
-1245 -1261 0
-1245 -1262 0
-1245 -1263 0
-1245 -1264 0
-1245 -1265 0
-1245 -1266 0
-1245 -1267 0
-1245 -1268 0
-1245 -1269 0
-1245 -1270 0
-1245 -1271 0
-1245 -1272 0
-1245 -1273 0
-1245 -1274 0
-1245 -1275 0
-1245 -1276 0
-1245 -1277 0
-1245 -1278 0
-1246 -1247 0
-1246 -1248 0
-1246 -1249 0
-1246 -1250 0
-1246 -1251 0
-1246 -1252 0
-1246 -1253 0
-1246 -1254 0
-1246 -1255 0
-1246 -1256 0
-1246 -1257 0
-1246 -1258 0
-1246 -1259 0
-1246 -1260 0
-1246 -1261 0
-1246 -1262 0
-1246 -1263 0
-1246 -1264 0
-1246 -1265 0
-1246 -1266 0
-1246 -1267 0
-1246 -1268 0
-1246 -1269 0
-1246 -1270 0
-1246 -1271 0
-1246 -1272 0
-1246 -1273 0
-1246 -1274 0
-1246 -1275 0
-1246 -1276 0
-1246 -1277 0
-1246 -1278 0
-1247 -1248 0
-1247 -1249 0
-1247 -1250 0
-1247 -1251 0
-1247 -1252 0
-1247 -1253 0
-1247 -1254 0
-1247 -1255 0
-1247 -1256 0
-1247 -1257 0
-1247 -1258 0
-1247 -1259 0
-1247 -1260 0
-1247 -1261 0
-1247 -1262 0
-1247 -1263 0
-1247 -1264 0
-1247 -1265 0
-1247 -1266 0
-1247 -1267 0
-1247 -1268 0
-1247 -1269 0
-1247 -1270 0
-1247 -1271 0
-1247 -1272 0
-1247 -1273 0
-1247 -1274 0
-1247 -1275 0
-1247 -1276 0
-1247 -1277 0
-1247 -1278 0
-1248 -1249 0
-1248 -1250 0
-1248 -1251 0
-1248 -1252 0
-1248 -1253 0
-1248 -1254 0
-1248 -1255 0
-1248 -1256 0
-1248 -1257 0
-1248 -1258 0
-1248 -1259 0
-1248 -1260 0
-1248 -1261 0
-1248 -1262 0
-1248 -1263 0
-1248 -1264 0
-1248 -1265 0
-1248 -1266 0
-1248 -1267 0
-1248 -1268 0
-1248 -1269 0
-1248 -1270 0
-1248 -1271 0
-1248 -1272 0
-1248 -1273 0
-1248 -1274 0
-1248 -1275 0
-1248 -1276 0
-1248 -1277 0
-1248 -1278 0
-1249 -1250 0
-1249 -1251 0
-1249 -1252 0
-1249 -1253 0
-1249 -1254 0
-1249 -1255 0
-1249 -1256 0
-1249 -1257 0
-1249 -1258 0
-1249 -1259 0
-1249 -1260 0
-1249 -1261 0
-1249 -1262 0
-1249 -1263 0
-1249 -1264 0
-1249 -1265 0
-1249 -1266 0
-1249 -1267 0
-1249 -1268 0
-1249 -1269 0
-1249 -1270 0
-1249 -1271 0
-1249 -1272 0
-1249 -1273 0
-1249 -1274 0
-1249 -1275 0
-1249 -1276 0
-1249 -1277 0
-1249 -1278 0
-1250 -1251 0
-1250 -1252 0
-1250 -1253 0
-1250 -1254 0
-1250 -1255 0
-1250 -1256 0
-1250 -1257 0
-1250 -1258 0
-1250 -1259 0
-1250 -1260 0
-1250 -1261 0
-1250 -1262 0
-1250 -1263 0
-1250 -1264 0
-1250 -1265 0
-1250 -1266 0
-1250 -1267 0
-1250 -1268 0
-1250 -1269 0
-1250 -1270 0
-1250 -1271 0
-1250 -1272 0
-1250 -1273 0
-1250 -1274 0
-1250 -1275 0
-1250 -1276 0
-1250 -1277 0
-1250 -1278 0
-1251 -1252 0
-1251 -1253 0
-1251 -1254 0
-1251 -1255 0
-1251 -1256 0
-1251 -1257 0
-1251 -1258 0
-1251 -1259 0
-1251 -1260 0
-1251 -1261 0
-1251 -1262 0
-1251 -1263 0
-1251 -1264 0
-1251 -1265 0
-1251 -1266 0
-1251 -1267 0
-1251 -1268 0
-1251 -1269 0
-1251 -1270 0
-1251 -1271 0
-1251 -1272 0
-1251 -1273 0
-1251 -1274 0
-1251 -1275 0
-1251 -1276 0
-1251 -1277 0
-1251 -1278 0
-1252 -1253 0
-1252 -1254 0
-1252 -1255 0
-1252 -1256 0
-1252 -1257 0
-1252 -1258 0
-1252 -1259 0
-1252 -1260 0
-1252 -1261 0
-1252 -1262 0
-1252 -1263 0
-1252 -1264 0
-1252 -1265 0
-1252 -1266 0
-1252 -1267 0
-1252 -1268 0
-1252 -1269 0
-1252 -1270 0
-1252 -1271 0
-1252 -1272 0
-1252 -1273 0
-1252 -1274 0
-1252 -1275 0
-1252 -1276 0
-1252 -1277 0
-1252 -1278 0
-1253 -1254 0
-1253 -1255 0
-1253 -1256 0
-1253 -1257 0
-1253 -1258 0
-1253 -1259 0
-1253 -1260 0
-1253 -1261 0
-1253 -1262 0
-1253 -1263 0
-1253 -1264 0
-1253 -1265 0
-1253 -1266 0
-1253 -1267 0
-1253 -1268 0
-1253 -1269 0
-1253 -1270 0
-1253 -1271 0
-1253 -1272 0
-1253 -1273 0
-1253 -1274 0
-1253 -1275 0
-1253 -1276 0
-1253 -1277 0
-1253 -1278 0
-1254 -1255 0
-1254 -1256 0
-1254 -1257 0
-1254 -1258 0
-1254 -1259 0
-1254 -1260 0
-1254 -1261 0
-1254 -1262 0
-1254 -1263 0
-1254 -1264 0
-1254 -1265 0
-1254 -1266 0
-1254 -1267 0
-1254 -1268 0
-1254 -1269 0
-1254 -1270 0
-1254 -1271 0
-1254 -1272 0
-1254 -1273 0
-1254 -1274 0
-1254 -1275 0
-1254 -1276 0
-1254 -1277 0
-1254 -1278 0
-1255 -1256 0
-1255 -1257 0
-1255 -1258 0
-1255 -1259 0
-1255 -1260 0
-1255 -1261 0
-1255 -1262 0
-1255 -1263 0
-1255 -1264 0
-1255 -1265 0
-1255 -1266 0
-1255 -1267 0
-1255 -1268 0
-1255 -1269 0
-1255 -1270 0
-1255 -1271 0
-1255 -1272 0
-1255 -1273 0
-1255 -1274 0
-1255 -1275 0
-1255 -1276 0
-1255 -1277 0
-1255 -1278 0
-1256 -1257 0
-1256 -1258 0
-1256 -1259 0
-1256 -1260 0
-1256 -1261 0
-1256 -1262 0
-1256 -1263 0
-1256 -1264 0
-1256 -1265 0
-1256 -1266 0
-1256 -1267 0
-1256 -1268 0
-1256 -1269 0
-1256 -1270 0
-1256 -1271 0
-1256 -1272 0
-1256 -1273 0
-1256 -1274 0
-1256 -1275 0
-1256 -1276 0
-1256 -1277 0
-1256 -1278 0
-1257 -1258 0
-1257 -1259 0
-1257 -1260 0
-1257 -1261 0
-1257 -1262 0
-1257 -1263 0
-1257 -1264 0
-1257 -1265 0
-1257 -1266 0
-1257 -1267 0
-1257 -1268 0
-1257 -1269 0
-1257 -1270 0
-1257 -1271 0
-1257 -1272 0
-1257 -1273 0
-1257 -1274 0
-1257 -1275 0
-1257 -1276 0
-1257 -1277 0
-1257 -1278 0
-1258 -1259 0
-1258 -1260 0
-1258 -1261 0
-1258 -1262 0
-1258 -1263 0
-1258 -1264 0
-1258 -1265 0
-1258 -1266 0
-1258 -1267 0
-1258 -1268 0
-1258 -1269 0
-1258 -1270 0
-1258 -1271 0
-1258 -1272 0
-1258 -1273 0
-1258 -1274 0
-1258 -1275 0
-1258 -1276 0
-1258 -1277 0
-1258 -1278 0
-1259 -1260 0
-1259 -1261 0
-1259 -1262 0
-1259 -1263 0
-1259 -1264 0
-1259 -1265 0
-1259 -1266 0
-1259 -1267 0
-1259 -1268 0
-1259 -1269 0
-1259 -1270 0
-1259 -1271 0
-1259 -1272 0
-1259 -1273 0
-1259 -1274 0
-1259 -1275 0
-1259 -1276 0
-1259 -1277 0
-1259 -1278 0
-1260 -1261 0
-1260 -1262 0
-1260 -1263 0
-1260 -1264 0
-1260 -1265 0
-1260 -1266 0
-1260 -1267 0
-1260 -1268 0
-1260 -1269 0
-1260 -1270 0
-1260 -1271 0
-1260 -1272 0
-1260 -1273 0
-1260 -1274 0
-1260 -1275 0
-1260 -1276 0
-1260 -1277 0
-1260 -1278 0
-1261 -1262 0
-1261 -1263 0
-1261 -1264 0
-1261 -1265 0
-1261 -1266 0
-1261 -1267 0
-1261 -1268 0
-1261 -1269 0
-1261 -1270 0
-1261 -1271 0
-1261 -1272 0
-1261 -1273 0
-1261 -1274 0
-1261 -1275 0
-1261 -1276 0
-1261 -1277 0
-1261 -1278 0
-1262 -1263 0
-1262 -1264 0
-1262 -1265 0
-1262 -1266 0
-1262 -1267 0
-1262 -1268 0
-1262 -1269 0
-1262 -1270 0
-1262 -1271 0
-1262 -1272 0
-1262 -1273 0
-1262 -1274 0
-1262 -1275 0
-1262 -1276 0
-1262 -1277 0
-1262 -1278 0
-1263 -1264 0
-1263 -1265 0
-1263 -1266 0
-1263 -1267 0
-1263 -1268 0
-1263 -1269 0
-1263 -1270 0
-1263 -1271 0
-1263 -1272 0
-1263 -1273 0
-1263 -1274 0
-1263 -1275 0
-1263 -1276 0
-1263 -1277 0
-1263 -1278 0
-1264 -1265 0
-1264 -1266 0
-1264 -1267 0
-1264 -1268 0
-1264 -1269 0
-1264 -1270 0
-1264 -1271 0
-1264 -1272 0
-1264 -1273 0
-1264 -1274 0
-1264 -1275 0
-1264 -1276 0
-1264 -1277 0
-1264 -1278 0
-1265 -1266 0
-1265 -1267 0
-1265 -1268 0
-1265 -1269 0
-1265 -1270 0
-1265 -1271 0
-1265 -1272 0
-1265 -1273 0
-1265 -1274 0
-1265 -1275 0
-1265 -1276 0
-1265 -1277 0
-1265 -1278 0
-1266 -1267 0
-1266 -1268 0
-1266 -1269 0
-1266 -1270 0
-1266 -1271 0
-1266 -1272 0
-1266 -1273 0
-1266 -1274 0
-1266 -1275 0
-1266 -1276 0
-1266 -1277 0
-1266 -1278 0
-1267 -1268 0
-1267 -1269 0
-1267 -1270 0
-1267 -1271 0
-1267 -1272 0
-1267 -1273 0
-1267 -1274 0
-1267 -1275 0
-1267 -1276 0
-1267 -1277 0
-1267 -1278 0
-1268 -1269 0
-1268 -1270 0
-1268 -1271 0
-1268 -1272 0
-1268 -1273 0
-1268 -1274 0
-1268 -1275 0
-1268 -1276 0
-1268 -1277 0
-1268 -1278 0
-1269 -1270 0
-1269 -1271 0
-1269 -1272 0
-1269 -1273 0
-1269 -1274 0
-1269 -1275 0
-1269 -1276 0
-1269 -1277 0
-1269 -1278 0
-1270 -1271 0
-1270 -1272 0
-1270 -1273 0
-1270 -1274 0
-1270 -1275 0
-1270 -1276 0
-1270 -1277 0
-1270 -1278 0
-1271 -1272 0
-1271 -1273 0
-1271 -1274 0
-1271 -1275 0
-1271 -1276 0
-1271 -1277 0
-1271 -1278 0
-1272 -1273 0
-1272 -1274 0
-1272 -1275 0
-1272 -1276 0
-1272 -1277 0
-1272 -1278 0
-1273 -1274 0
-1273 -1275 0
-1273 -1276 0
-1273 -1277 0
-1273 -1278 0
-1274 -1275 0
-1274 -1276 0
-1274 -1277 0
-1274 -1278 0
-1275 -1276 0
-1275 -1277 0
-1275 -1278 0
-1276 -1277 0
-1276 -1278 0
-1277 -1278 0
-1195 223 0
-1195 371 0
-1195 -193 0
-1195 -194 0
-1195 -195 0
-1195 -196 0
-1195 -197 0
-1195 -211 393 0
-1195 -211 -276 0
-1195 -211 -300 0
-1195 -211 -324 0
-1195 -211 -186 -208 0
-1195 -212 394 0
-1195 -212 -277 0
-1195 -212 -301 0
-1195 -212 -325 0
-1195 -212 -186 -209 0
-1195 -213 395 0
-1195 -213 -278 0
-1195 -213 -302 0
-1195 -213 -326 0
-1195 -213 -186 -210 0
-1195 -214 0
-1196 223 0
-1196 372 0
-1196 -192 0
-1196 -194 0
-1196 -195 0
-1196 -196 0
-1196 -197 0
-1196 -211 393 0
-1196 -211 -280 0
-1196 -211 -304 0
-1196 -211 -328 0
-1196 -211 -187 -208 0
-1196 -212 394 0
-1196 -212 -281 0
-1196 -212 -305 0
-1196 -212 -329 0
-1196 -212 -187 -209 0
-1196 -213 395 0
-1196 -213 -282 0
-1196 -213 -306 0
-1196 -213 -330 0
-1196 -213 -187 -210 0
-1196 -214 0
-1197 223 0
-1197 373 0
-1197 -192 0
-1197 -193 0
-1197 -195 0
-1197 -196 0
-1197 -197 0
-1197 -211 393 0
-1197 -211 -284 0
-1197 -211 -308 0
-1197 -211 -332 0
-1197 -211 -188 -208 0
-1197 -212 394 0
-1197 -212 -285 0
-1197 -212 -309 0
-1197 -212 -333 0
-1197 -212 -188 -209 0
-1197 -213 395 0
-1197 -213 -286 0
-1197 -213 -310 0
-1197 -213 -334 0
-1197 -213 -188 -210 0
-1197 -214 0
-1198 223 0
-1198 374 0
-1198 -192 0
-1198 -193 0
-1198 -194 0
-1198 -196 0
-1198 -197 0
-1198 -211 393 0
-1198 -211 -288 0
-1198 -211 -312 0
-1198 -211 -336 0
-1198 -211 -189 -208 0
-1198 -212 394 0
-1198 -212 -289 0
-1198 -212 -313 0
-1198 -212 -337 0
-1198 -212 -189 -209 0
-1198 -213 395 0
-1198 -213 -290 0
-1198 -213 -314 0
-1198 -213 -338 0
-1198 -213 -189 -210 0
-1198 -214 0
-1199 223 0
-1199 375 0
-1199 -192 0
-1199 -193 0
-1199 -194 0
-1199 -195 0
-1199 -197 0
-1199 -211 393 0
-1199 -211 -292 0
-1199 -211 -316 0
-1199 -211 -340 0
-1199 -211 -190 -208 0
-1199 -212 394 0
-1199 -212 -293 0
-1199 -212 -317 0
-1199 -212 -341 0
-1199 -212 -190 -209 0
-1199 -213 395 0
-1199 -213 -294 0
-1199 -213 -318 0
-1199 -213 -342 0
-1199 -213 -190 -210 0
-1199 -214 0
-1200 223 0
-1200 376 0
-1200 -192 0
-1200 -193 0
-1200 -194 0
-1200 -195 0
-1200 -196 0
-1200 -211 393 0
-1200 -211 -296 0
-1200 -211 -320 0
-1200 -211 -344 0
-1200 -211 -191 -208 0
-1200 -212 394 0
-1200 -212 -297 0
-1200 -212 -321 0
-1200 -212 -345 0
-1200 -212 -191 -209 0
-1200 -213 395 0
-1200 -213 -298 0
-1200 -213 -322 0
-1200 -213 -346 0
-1200 -213 -191 -210 0
-1200 -214 0
-1201 223 0
-1201 371 0
-1201 -199 0
-1201 -200 0
-1201 -201 0
-1201 -202 0
-1201 -215 393 0
-1201 -215 -276 0
-1201 -215 -300 0
-1201 -215 -324 0
-1201 -215 -186 -208 0
-1201 -216 394 0
-1201 -216 -277 0
-1201 -216 -301 0
-1201 -216 -325 0
-1201 -216 -186 -209 0
-1201 -217 395 0
-1201 -217 -278 0
-1201 -217 -302 0
-1201 -217 -326 0
-1201 -217 -186 -210 0
-1201 -218 0
-1202 223 0
-1202 372 0
-1202 -200 0
-1202 -201 0
-1202 -202 0
-1202 -215 393 0
-1202 -215 -280 0
-1202 -215 -304 0
-1202 -215 -328 0
-1202 -215 -187 -208 0
-1202 -216 394 0
-1202 -216 -281 0
-1202 -216 -305 0
-1202 -216 -329 0
-1202 -216 -187 -209 0
-1202 -217 395 0
-1202 -217 -282 0
-1202 -217 -306 0
-1202 -217 -330 0
-1202 -217 -187 -210 0
-1202 -218 0
-1203 223 0
-1203 373 0
-1203 -198 0
-1203 -201 0
-1203 -202 0
-1203 -215 393 0
-1203 -215 -284 0
-1203 -215 -308 0
-1203 -215 -332 0
-1203 -215 -188 -208 0
-1203 -216 394 0
-1203 -216 -285 0
-1203 -216 -309 0
-1203 -216 -333 0
-1203 -216 -188 -209 0
-1203 -217 395 0
-1203 -217 -286 0
-1203 -217 -310 0
-1203 -217 -334 0
-1203 -217 -188 -210 0
-1203 -218 0
-1204 223 0
-1204 374 0
-1204 -198 0
-1204 -199 0
-1204 -202 0
-1204 -215 393 0
-1204 -215 -288 0
-1204 -215 -312 0
-1204 -215 -336 0
-1204 -215 -189 -208 0
-1204 -216 394 0
-1204 -216 -289 0
-1204 -216 -313 0
-1204 -216 -337 0
-1204 -216 -189 -209 0
-1204 -217 395 0
-1204 -217 -290 0
-1204 -217 -314 0
-1204 -217 -338 0
-1204 -217 -189 -210 0
-1204 -218 0
-1205 223 0
-1205 375 0
-1205 -198 0
-1205 -199 0
-1205 -200 0
-1205 -215 393 0
-1205 -215 -292 0
-1205 -215 -316 0
-1205 -215 -340 0
-1205 -215 -190 -208 0
-1205 -216 394 0
-1205 -216 -293 0
-1205 -216 -317 0
-1205 -216 -341 0
-1205 -216 -190 -209 0
-1205 -217 395 0
-1205 -217 -294 0
-1205 -217 -318 0
-1205 -217 -342 0
-1205 -217 -190 -210 0
-1205 -218 0
-1206 223 0
-1206 376 0
-1206 -198 0
-1206 -199 0
-1206 -200 0
-1206 -201 0
-1206 -215 393 0
-1206 -215 -296 0
-1206 -215 -320 0
-1206 -215 -344 0
-1206 -215 -191 -208 0
-1206 -216 394 0
-1206 -216 -297 0
-1206 -216 -321 0
-1206 -216 -345 0
-1206 -216 -191 -209 0
-1206 -217 395 0
-1206 -217 -298 0
-1206 -217 -322 0
-1206 -217 -346 0
-1206 -217 -191 -210 0
-1206 -218 0
-1207 223 0
-1207 371 0
-1207 -204 0
-1207 -205 0
-1207 -206 0
-1207 -219 393 0
-1207 -219 -276 0
-1207 -219 -300 0
-1207 -219 -324 0
-1207 -219 -186 -208 0
-1207 -220 394 0
-1207 -220 -277 0
-1207 -220 -301 0
-1207 -220 -325 0
-1207 -220 -186 -209 0
-1207 -221 395 0
-1207 -221 -278 0
-1207 -221 -302 0
-1207 -221 -326 0
-1207 -221 -186 -210 0
-1207 -222 0
-1208 223 0
-1208 372 0
-1208 -205 0
-1208 -206 0
-1208 -219 393 0
-1208 -219 -280 0
-1208 -219 -304 0
-1208 -219 -328 0
-1208 -219 -187 -208 0
-1208 -220 394 0
-1208 -220 -281 0
-1208 -220 -305 0
-1208 -220 -329 0
-1208 -220 -187 -209 0
-1208 -221 395 0
-1208 -221 -282 0
-1208 -221 -306 0
-1208 -221 -330 0
-1208 -221 -187 -210 0
-1208 -222 0
-1209 223 0
-1209 373 0
-1209 -206 0
-1209 -219 393 0
-1209 -219 -284 0
-1209 -219 -308 0
-1209 -219 -332 0
-1209 -219 -188 -208 0
-1209 -220 394 0
-1209 -220 -285 0
-1209 -220 -309 0
-1209 -220 -333 0
-1209 -220 -188 -209 0
-1209 -221 395 0
-1209 -221 -286 0
-1209 -221 -310 0
-1209 -221 -334 0
-1209 -221 -188 -210 0
-1209 -222 0
-1210 223 0
-1210 374 0
-1210 -203 0
-1210 -219 393 0
-1210 -219 -288 0
-1210 -219 -312 0
-1210 -219 -336 0
-1210 -219 -189 -208 0
-1210 -220 394 0
-1210 -220 -289 0
-1210 -220 -313 0
-1210 -220 -337 0
-1210 -220 -189 -209 0
-1210 -221 395 0
-1210 -221 -290 0
-1210 -221 -314 0
-1210 -221 -338 0
-1210 -221 -189 -210 0
-1210 -222 0
-1211 223 0
-1211 375 0
-1211 -203 0
-1211 -204 0
-1211 -219 393 0
-1211 -219 -292 0
-1211 -219 -316 0
-1211 -219 -340 0
-1211 -219 -190 -208 0
-1211 -220 394 0
-1211 -220 -293 0
-1211 -220 -317 0
-1211 -220 -341 0
-1211 -220 -190 -209 0
-1211 -221 395 0
-1211 -221 -294 0
-1211 -221 -318 0
-1211 -221 -342 0
-1211 -221 -190 -210 0
-1211 -222 0
-1212 223 0
-1212 376 0
-1212 -203 0
-1212 -204 0
-1212 -205 0
-1212 -219 393 0
-1212 -219 -296 0
-1212 -219 -320 0
-1212 -219 -344 0
-1212 -219 -191 -208 0
-1212 -220 394 0
-1212 -220 -297 0
-1212 -220 -321 0
-1212 -220 -345 0
-1212 -220 -191 -209 0
-1212 -221 395 0
-1212 -221 -298 0
-1212 -221 -322 0
-1212 -221 -346 0
-1212 -221 -191 -210 0
-1212 -222 0
-1213 223 0
-1213 371 0
-1213 392 0
-1213 -275 0
-1213 -299 0
-1213 -323 0
-1213 -186 -207 0
-1214 223 0
-1214 372 0
-1214 392 0
-1214 -279 0
-1214 -303 0
-1214 -327 0
-1214 -187 -207 0
-1215 223 0
-1215 373 0
-1215 392 0
-1215 -283 0
-1215 -307 0
-1215 -331 0
-1215 -188 -207 0
-1216 223 0
-1216 374 0
-1216 392 0
-1216 -287 0
-1216 -311 0
-1216 -335 0
-1216 -189 -207 0
-1217 223 0
-1217 375 0
-1217 392 0
-1217 -291 0
-1217 -315 0
-1217 -339 0
-1217 -190 -207 0
-1218 223 0
-1218 376 0
-1218 392 0
-1218 -295 0
-1218 -319 0
-1218 -343 0
-1218 -191 -207 0
-1219 224 0
-1219 377 0
-1219 -187 0
-1219 -188 0
-1219 -189 0
-1219 -190 0
-1219 -191 0
-1219 -207 397 0
-1219 -207 -252 0
-1219 -207 -300 0
-1219 -207 -324 0
-1219 -207 -192 -212 0
-1219 -208 398 0
-1219 -208 -253 0
-1219 -208 -301 0
-1219 -208 -325 0
-1219 -208 -192 -213 0
-1219 -209 399 0
-1219 -209 -254 0
-1219 -209 -302 0
-1219 -209 -326 0
-1219 -209 -192 -214 0
-1219 -210 0
-1220 224 0
-1220 378 0
-1220 -186 0
-1220 -188 0
-1220 -189 0
-1220 -190 0
-1220 -191 0
-1220 -207 397 0
-1220 -207 -256 0
-1220 -207 -304 0
-1220 -207 -328 0
-1220 -207 -193 -212 0
-1220 -208 398 0
-1220 -208 -257 0
-1220 -208 -305 0
-1220 -208 -329 0
-1220 -208 -193 -213 0
-1220 -209 399 0
-1220 -209 -258 0
-1220 -209 -306 0
-1220 -209 -330 0
-1220 -209 -193 -214 0
-1220 -210 0
-1221 224 0
-1221 379 0
-1221 -186 0
-1221 -187 0
-1221 -189 0
-1221 -190 0
-1221 -191 0
-1221 -207 397 0
-1221 -207 -260 0
-1221 -207 -308 0
-1221 -207 -332 0
-1221 -207 -194 -212 0
-1221 -208 398 0
-1221 -208 -261 0
-1221 -208 -309 0
-1221 -208 -333 0
-1221 -208 -194 -213 0
-1221 -209 399 0
-1221 -209 -262 0
-1221 -209 -310 0
-1221 -209 -334 0
-1221 -209 -194 -214 0
-1221 -210 0
-1222 224 0
-1222 380 0
-1222 -186 0
-1222 -187 0
-1222 -188 0
-1222 -190 0
-1222 -191 0
-1222 -207 397 0
-1222 -207 -264 0
-1222 -207 -312 0
-1222 -207 -336 0
-1222 -207 -195 -212 0
-1222 -208 398 0
-1222 -208 -265 0
-1222 -208 -313 0
-1222 -208 -337 0
-1222 -208 -195 -213 0
-1222 -209 399 0
-1222 -209 -266 0
-1222 -209 -314 0
-1222 -209 -338 0
-1222 -209 -195 -214 0
-1222 -210 0
-1223 224 0
-1223 381 0
-1223 -186 0
-1223 -187 0
-1223 -188 0
-1223 -189 0
-1223 -191 0
-1223 -207 397 0
-1223 -207 -268 0
-1223 -207 -316 0
-1223 -207 -340 0
-1223 -207 -196 -212 0
-1223 -208 398 0
-1223 -208 -269 0
-1223 -208 -317 0
-1223 -208 -341 0
-1223 -208 -196 -213 0
-1223 -209 399 0
-1223 -209 -270 0
-1223 -209 -318 0
-1223 -209 -342 0
-1223 -209 -196 -214 0
-1223 -210 0
-1224 224 0
-1224 382 0
-1224 -186 0
-1224 -187 0
-1224 -188 0
-1224 -189 0
-1224 -190 0
-1224 -207 397 0
-1224 -207 -272 0
-1224 -207 -320 0
-1224 -207 -344 0
-1224 -207 -197 -212 0
-1224 -208 398 0
-1224 -208 -273 0
-1224 -208 -321 0
-1224 -208 -345 0
-1224 -208 -197 -213 0
-1224 -209 399 0
-1224 -209 -274 0
-1224 -209 -322 0
-1224 -209 -346 0
-1224 -209 -197 -214 0
-1224 -210 0
-1225 224 0
-1225 377 0
-1225 -199 0
-1225 -200 0
-1225 -201 0
-1225 -202 0
-1225 -215 397 0
-1225 -215 -252 0
-1225 -215 -300 0
-1225 -215 -324 0
-1225 -215 -192 -212 0
-1225 -216 398 0
-1225 -216 -253 0
-1225 -216 -301 0
-1225 -216 -325 0
-1225 -216 -192 -213 0
-1225 -217 399 0
-1225 -217 -254 0
-1225 -217 -302 0
-1225 -217 -326 0
-1225 -217 -192 -214 0
-1225 -218 0
-1226 224 0
-1226 378 0
-1226 -200 0
-1226 -201 0
-1226 -202 0
-1226 -215 397 0
-1226 -215 -256 0
-1226 -215 -304 0
-1226 -215 -328 0
-1226 -215 -193 -212 0
-1226 -216 398 0
-1226 -216 -257 0
-1226 -216 -305 0
-1226 -216 -329 0
-1226 -216 -193 -213 0
-1226 -217 399 0
-1226 -217 -258 0
-1226 -217 -306 0
-1226 -217 -330 0
-1226 -217 -193 -214 0
-1226 -218 0
-1227 224 0
-1227 379 0
-1227 -198 0
-1227 -201 0
-1227 -202 0
-1227 -215 397 0
-1227 -215 -260 0
-1227 -215 -308 0
-1227 -215 -332 0
-1227 -215 -194 -212 0
-1227 -216 398 0
-1227 -216 -261 0
-1227 -216 -309 0
-1227 -216 -333 0
-1227 -216 -194 -213 0
-1227 -217 399 0
-1227 -217 -262 0
-1227 -217 -310 0
-1227 -217 -334 0
-1227 -217 -194 -214 0
-1227 -218 0
-1228 224 0
-1228 380 0
-1228 -198 0
-1228 -199 0
-1228 -202 0
-1228 -215 397 0
-1228 -215 -264 0
-1228 -215 -312 0
-1228 -215 -336 0
-1228 -215 -195 -212 0
-1228 -216 398 0
-1228 -216 -265 0
-1228 -216 -313 0
-1228 -216 -337 0
-1228 -216 -195 -213 0
-1228 -217 399 0
-1228 -217 -266 0
-1228 -217 -314 0
-1228 -217 -338 0
-1228 -217 -195 -214 0
-1228 -218 0
-1229 224 0
-1229 381 0
-1229 -198 0
-1229 -199 0
-1229 -200 0
-1229 -215 397 0
-1229 -215 -268 0
-1229 -215 -316 0
-1229 -215 -340 0
-1229 -215 -196 -212 0
-1229 -216 398 0
-1229 -216 -269 0
-1229 -216 -317 0
-1229 -216 -341 0
-1229 -216 -196 -213 0
-1229 -217 399 0
-1229 -217 -270 0
-1229 -217 -318 0
-1229 -217 -342 0
-1229 -217 -196 -214 0
-1229 -218 0
-1230 224 0
-1230 382 0
-1230 -198 0
-1230 -199 0
-1230 -200 0
-1230 -201 0
-1230 -215 397 0
-1230 -215 -272 0
-1230 -215 -320 0
-1230 -215 -344 0
-1230 -215 -197 -212 0
-1230 -216 398 0
-1230 -216 -273 0
-1230 -216 -321 0
-1230 -216 -345 0
-1230 -216 -197 -213 0
-1230 -217 399 0
-1230 -217 -274 0
-1230 -217 -322 0
-1230 -217 -346 0
-1230 -217 -197 -214 0
-1230 -218 0
-1231 224 0
-1231 377 0
-1231 -204 0
-1231 -205 0
-1231 -206 0
-1231 -219 397 0
-1231 -219 -252 0
-1231 -219 -300 0
-1231 -219 -324 0
-1231 -219 -192 -212 0
-1231 -220 398 0
-1231 -220 -253 0
-1231 -220 -301 0
-1231 -220 -325 0
-1231 -220 -192 -213 0
-1231 -221 399 0
-1231 -221 -254 0
-1231 -221 -302 0
-1231 -221 -326 0
-1231 -221 -192 -214 0
-1231 -222 0
-1232 224 0
-1232 378 0
-1232 -205 0
-1232 -206 0
-1232 -219 397 0
-1232 -219 -256 0
-1232 -219 -304 0
-1232 -219 -328 0
-1232 -219 -193 -212 0
-1232 -220 398 0
-1232 -220 -257 0
-1232 -220 -305 0
-1232 -220 -329 0
-1232 -220 -193 -213 0
-1232 -221 399 0
-1232 -221 -258 0
-1232 -221 -306 0
-1232 -221 -330 0
-1232 -221 -193 -214 0
-1232 -222 0
-1233 224 0
-1233 379 0
-1233 -206 0
-1233 -219 397 0
-1233 -219 -260 0
-1233 -219 -308 0
-1233 -219 -332 0
-1233 -219 -194 -212 0
-1233 -220 398 0
-1233 -220 -261 0
-1233 -220 -309 0
-1233 -220 -333 0
-1233 -220 -194 -213 0
-1233 -221 399 0
-1233 -221 -262 0
-1233 -221 -310 0
-1233 -221 -334 0
-1233 -221 -194 -214 0
-1233 -222 0
-1234 224 0
-1234 380 0
-1234 -203 0
-1234 -219 397 0
-1234 -219 -264 0
-1234 -219 -312 0
-1234 -219 -336 0
-1234 -219 -195 -212 0
-1234 -220 398 0
-1234 -220 -265 0
-1234 -220 -313 0
-1234 -220 -337 0
-1234 -220 -195 -213 0
-1234 -221 399 0
-1234 -221 -266 0
-1234 -221 -314 0
-1234 -221 -338 0
-1234 -221 -195 -214 0
-1234 -222 0
-1235 224 0
-1235 381 0
-1235 -203 0
-1235 -204 0
-1235 -219 397 0
-1235 -219 -268 0
-1235 -219 -316 0
-1235 -219 -340 0
-1235 -219 -196 -212 0
-1235 -220 398 0
-1235 -220 -269 0
-1235 -220 -317 0
-1235 -220 -341 0
-1235 -220 -196 -213 0
-1235 -221 399 0
-1235 -221 -270 0
-1235 -221 -318 0
-1235 -221 -342 0
-1235 -221 -196 -214 0
-1235 -222 0
-1236 224 0
-1236 382 0
-1236 -203 0
-1236 -204 0
-1236 -205 0
-1236 -219 397 0
-1236 -219 -272 0
-1236 -219 -320 0
-1236 -219 -344 0
-1236 -219 -197 -212 0
-1236 -220 398 0
-1236 -220 -273 0
-1236 -220 -321 0
-1236 -220 -345 0
-1236 -220 -197 -213 0
-1236 -221 399 0
-1236 -221 -274 0
-1236 -221 -322 0
-1236 -221 -346 0
-1236 -221 -197 -214 0
-1236 -222 0
-1237 224 0
-1237 377 0
-1237 396 0
-1237 -251 0
-1237 -299 0
-1237 -323 0
-1237 -192 -211 0
-1238 224 0
-1238 378 0
-1238 396 0
-1238 -255 0
-1238 -303 0
-1238 -327 0
-1238 -193 -211 0
-1239 224 0
-1239 379 0
-1239 396 0
-1239 -259 0
-1239 -307 0
-1239 -331 0
-1239 -194 -211 0
-1240 224 0
-1240 380 0
-1240 396 0
-1240 -263 0
-1240 -311 0
-1240 -335 0
-1240 -195 -211 0
-1241 224 0
-1241 381 0
-1241 396 0
-1241 -267 0
-1241 -315 0
-1241 -339 0
-1241 -196 -211 0
-1242 224 0
-1242 382 0
-1242 396 0
-1242 -271 0
-1242 -319 0
-1242 -343 0
-1242 -197 -211 0
-1243 225 0
-1243 383 0
-1243 -188 0
-1243 -189 0
-1243 -190 0
-1243 -191 0
-1243 -207 401 0
-1243 -207 -252 0
-1243 -207 -256 0
-1243 -207 -276 0
-1243 -207 -280 0
-1243 -207 -324 0
-1243 -207 -328 0
-1243 -207 -198 -216 0
-1243 -208 402 0
-1243 -208 -253 0
-1243 -208 -257 0
-1243 -208 -277 0
-1243 -208 -281 0
-1243 -208 -325 0
-1243 -208 -329 0
-1243 -208 -198 -217 0
-1243 -209 403 0
-1243 -209 -254 0
-1243 -209 -258 0
-1243 -209 -278 0
-1243 -209 -282 0
-1243 -209 -326 0
-1243 -209 -330 0
-1243 -209 -198 -218 0
-1243 -210 0
-1244 225 0
-1244 384 0
-1244 -186 0
-1244 -189 0
-1244 -190 0
-1244 -191 0
-1244 -207 401 0
-1244 -207 -256 0
-1244 -207 -260 0
-1244 -207 -280 0
-1244 -207 -284 0
-1244 -207 -328 0
-1244 -207 -332 0
-1244 -207 -199 -216 0
-1244 -208 402 0
-1244 -208 -257 0
-1244 -208 -261 0
-1244 -208 -281 0
-1244 -208 -285 0
-1244 -208 -329 0
-1244 -208 -333 0
-1244 -208 -199 -217 0
-1244 -209 403 0
-1244 -209 -258 0
-1244 -209 -262 0
-1244 -209 -282 0
-1244 -209 -286 0
-1244 -209 -330 0
-1244 -209 -334 0
-1244 -209 -199 -218 0
-1244 -210 0
-1245 225 0
-1245 385 0
-1245 -186 0
-1245 -187 0
-1245 -190 0
-1245 -191 0
-1245 -207 401 0
-1245 -207 -260 0
-1245 -207 -264 0
-1245 -207 -284 0
-1245 -207 -288 0
-1245 -207 -332 0
-1245 -207 -336 0
-1245 -207 -200 -216 0
-1245 -208 402 0
-1245 -208 -261 0
-1245 -208 -265 0
-1245 -208 -285 0
-1245 -208 -289 0
-1245 -208 -333 0
-1245 -208 -337 0
-1245 -208 -200 -217 0
-1245 -209 403 0
-1245 -209 -262 0
-1245 -209 -266 0
-1245 -209 -286 0
-1245 -209 -290 0
-1245 -209 -334 0
-1245 -209 -338 0
-1245 -209 -200 -218 0
-1245 -210 0
-1246 225 0
-1246 386 0
-1246 -186 0
-1246 -187 0
-1246 -188 0
-1246 -191 0
-1246 -207 401 0
-1246 -207 -264 0
-1246 -207 -268 0
-1246 -207 -288 0
-1246 -207 -292 0
-1246 -207 -336 0
-1246 -207 -340 0
-1246 -207 -201 -216 0
-1246 -208 402 0
-1246 -208 -265 0
-1246 -208 -269 0
-1246 -208 -289 0
-1246 -208 -293 0
-1246 -208 -337 0
-1246 -208 -341 0
-1246 -208 -201 -217 0
-1246 -209 403 0
-1246 -209 -266 0
-1246 -209 -270 0
-1246 -209 -290 0
-1246 -209 -294 0
-1246 -209 -338 0
-1246 -209 -342 0
-1246 -209 -201 -218 0
-1246 -210 0
-1247 225 0
-1247 387 0
-1247 -186 0
-1247 -187 0
-1247 -188 0
-1247 -189 0
-1247 -207 401 0
-1247 -207 -268 0
-1247 -207 -272 0
-1247 -207 -292 0
-1247 -207 -296 0
-1247 -207 -340 0
-1247 -207 -344 0
-1247 -207 -202 -216 0
-1247 -208 402 0
-1247 -208 -269 0
-1247 -208 -273 0
-1247 -208 -293 0
-1247 -208 -297 0
-1247 -208 -341 0
-1247 -208 -345 0
-1247 -208 -202 -217 0
-1247 -209 403 0
-1247 -209 -270 0
-1247 -209 -274 0
-1247 -209 -294 0
-1247 -209 -298 0
-1247 -209 -342 0
-1247 -209 -346 0
-1247 -209 -202 -218 0
-1247 -210 0
-1248 225 0
-1248 383 0
-1248 -194 0
-1248 -195 0
-1248 -196 0
-1248 -197 0
-1248 -211 401 0
-1248 -211 -252 0
-1248 -211 -256 0
-1248 -211 -276 0
-1248 -211 -280 0
-1248 -211 -324 0
-1248 -211 -328 0
-1248 -211 -198 -216 0
-1248 -212 402 0
-1248 -212 -253 0
-1248 -212 -257 0
-1248 -212 -277 0
-1248 -212 -281 0
-1248 -212 -325 0
-1248 -212 -329 0
-1248 -212 -198 -217 0
-1248 -213 403 0
-1248 -213 -254 0
-1248 -213 -258 0
-1248 -213 -278 0
-1248 -213 -282 0
-1248 -213 -326 0
-1248 -213 -330 0
-1248 -213 -198 -218 0
-1248 -214 0
-1249 225 0
-1249 384 0
-1249 -192 0
-1249 -195 0
-1249 -196 0
-1249 -197 0
-1249 -211 401 0
-1249 -211 -256 0
-1249 -211 -260 0
-1249 -211 -280 0
-1249 -211 -284 0
-1249 -211 -328 0
-1249 -211 -332 0
-1249 -211 -199 -216 0
-1249 -212 402 0
-1249 -212 -257 0
-1249 -212 -261 0
-1249 -212 -281 0
-1249 -212 -285 0
-1249 -212 -329 0
-1249 -212 -333 0
-1249 -212 -199 -217 0
-1249 -213 403 0
-1249 -213 -258 0
-1249 -213 -262 0
-1249 -213 -282 0
-1249 -213 -286 0
-1249 -213 -330 0
-1249 -213 -334 0
-1249 -213 -199 -218 0
-1249 -214 0
-1250 225 0
-1250 385 0
-1250 -192 0
-1250 -193 0
-1250 -196 0
-1250 -197 0
-1250 -211 401 0
-1250 -211 -260 0
-1250 -211 -264 0
-1250 -211 -284 0
-1250 -211 -288 0
-1250 -211 -332 0
-1250 -211 -336 0
-1250 -211 -200 -216 0
-1250 -212 402 0
-1250 -212 -261 0
-1250 -212 -265 0
-1250 -212 -285 0
-1250 -212 -289 0
-1250 -212 -333 0
-1250 -212 -337 0
-1250 -212 -200 -217 0
-1250 -213 403 0
-1250 -213 -262 0
-1250 -213 -266 0
-1250 -213 -286 0
-1250 -213 -290 0
-1250 -213 -334 0
-1250 -213 -338 0
-1250 -213 -200 -218 0
-1250 -214 0
-1251 225 0
-1251 386 0
-1251 -192 0
-1251 -193 0
-1251 -194 0
-1251 -197 0
-1251 -211 401 0
-1251 -211 -264 0
-1251 -211 -268 0
-1251 -211 -288 0
-1251 -211 -292 0
-1251 -211 -336 0
-1251 -211 -340 0
-1251 -211 -201 -216 0
-1251 -212 402 0
-1251 -212 -265 0
-1251 -212 -269 0
-1251 -212 -289 0
-1251 -212 -293 0
-1251 -212 -337 0
-1251 -212 -341 0
-1251 -212 -201 -217 0
-1251 -213 403 0
-1251 -213 -266 0
-1251 -213 -270 0
-1251 -213 -290 0
-1251 -213 -294 0
-1251 -213 -338 0
-1251 -213 -342 0
-1251 -213 -201 -218 0
-1251 -214 0
-1252 225 0
-1252 387 0
-1252 -192 0
-1252 -193 0
-1252 -194 0
-1252 -195 0
-1252 -211 401 0
-1252 -211 -268 0
-1252 -211 -272 0
-1252 -211 -292 0
-1252 -211 -296 0
-1252 -211 -340 0
-1252 -211 -344 0
-1252 -211 -202 -216 0
-1252 -212 402 0
-1252 -212 -269 0
-1252 -212 -273 0
-1252 -212 -293 0
-1252 -212 -297 0
-1252 -212 -341 0
-1252 -212 -345 0
-1252 -212 -202 -217 0
-1252 -213 403 0
-1252 -213 -270 0
-1252 -213 -274 0
-1252 -213 -294 0
-1252 -213 -298 0
-1252 -213 -342 0
-1252 -213 -346 0
-1252 -213 -202 -218 0
-1252 -214 0
-1253 225 0
-1253 383 0
-1253 -205 0
-1253 -206 0
-1253 -219 401 0
-1253 -219 -252 0
-1253 -219 -256 0
-1253 -219 -276 0
-1253 -219 -280 0
-1253 -219 -324 0
-1253 -219 -328 0
-1253 -219 -198 -216 0
-1253 -220 402 0
-1253 -220 -253 0
-1253 -220 -257 0
-1253 -220 -277 0
-1253 -220 -281 0
-1253 -220 -325 0
-1253 -220 -329 0
-1253 -220 -198 -217 0
-1253 -221 403 0
-1253 -221 -254 0
-1253 -221 -258 0
-1253 -221 -278 0
-1253 -221 -282 0
-1253 -221 -326 0
-1253 -221 -330 0
-1253 -221 -198 -218 0
-1253 -222 0
-1254 225 0
-1254 384 0
-1254 -206 0
-1254 -219 401 0
-1254 -219 -256 0
-1254 -219 -260 0
-1254 -219 -280 0
-1254 -219 -284 0
-1254 -219 -328 0
-1254 -219 -332 0
-1254 -219 -199 -216 0
-1254 -220 402 0
-1254 -220 -257 0
-1254 -220 -261 0
-1254 -220 -281 0
-1254 -220 -285 0
-1254 -220 -329 0
-1254 -220 -333 0
-1254 -220 -199 -217 0
-1254 -221 403 0
-1254 -221 -258 0
-1254 -221 -262 0
-1254 -221 -282 0
-1254 -221 -286 0
-1254 -221 -330 0
-1254 -221 -334 0
-1254 -221 -199 -218 0
-1254 -222 0
-1255 225 0
-1255 385 0
-1255 -219 401 0
-1255 -219 -260 0
-1255 -219 -264 0
-1255 -219 -284 0
-1255 -219 -288 0
-1255 -219 -332 0
-1255 -219 -336 0
-1255 -219 -200 -216 0
-1255 -220 402 0
-1255 -220 -261 0
-1255 -220 -265 0
-1255 -220 -285 0
-1255 -220 -289 0
-1255 -220 -333 0
-1255 -220 -337 0
-1255 -220 -200 -217 0
-1255 -221 403 0
-1255 -221 -262 0
-1255 -221 -266 0
-1255 -221 -286 0
-1255 -221 -290 0
-1255 -221 -334 0
-1255 -221 -338 0
-1255 -221 -200 -218 0
-1255 -222 0
-1256 225 0
-1256 386 0
-1256 -203 0
-1256 -219 401 0
-1256 -219 -264 0
-1256 -219 -268 0
-1256 -219 -288 0
-1256 -219 -292 0
-1256 -219 -336 0
-1256 -219 -340 0
-1256 -219 -201 -216 0
-1256 -220 402 0
-1256 -220 -265 0
-1256 -220 -269 0
-1256 -220 -289 0
-1256 -220 -293 0
-1256 -220 -337 0
-1256 -220 -341 0
-1256 -220 -201 -217 0
-1256 -221 403 0
-1256 -221 -266 0
-1256 -221 -270 0
-1256 -221 -290 0
-1256 -221 -294 0
-1256 -221 -338 0
-1256 -221 -342 0
-1256 -221 -201 -218 0
-1256 -222 0
-1257 225 0
-1257 387 0
-1257 -203 0
-1257 -204 0
-1257 -219 401 0
-1257 -219 -268 0
-1257 -219 -272 0
-1257 -219 -292 0
-1257 -219 -296 0
-1257 -219 -340 0
-1257 -219 -344 0
-1257 -219 -202 -216 0
-1257 -220 402 0
-1257 -220 -269 0
-1257 -220 -273 0
-1257 -220 -293 0
-1257 -220 -297 0
-1257 -220 -341 0
-1257 -220 -345 0
-1257 -220 -202 -217 0
-1257 -221 403 0
-1257 -221 -270 0
-1257 -221 -274 0
-1257 -221 -294 0
-1257 -221 -298 0
-1257 -221 -342 0
-1257 -221 -346 0
-1257 -221 -202 -218 0
-1257 -222 0
-1258 225 0
-1258 383 0
-1258 400 0
-1258 -251 0
-1258 -255 0
-1258 -275 0
-1258 -279 0
-1258 -323 0
-1258 -327 0
-1258 -198 -215 0
-1259 225 0
-1259 384 0
-1259 400 0
-1259 -255 0
-1259 -259 0
-1259 -279 0
-1259 -283 0
-1259 -327 0
-1259 -331 0
-1259 -199 -215 0
-1260 225 0
-1260 385 0
-1260 400 0
-1260 -259 0
-1260 -263 0
-1260 -283 0
-1260 -287 0
-1260 -331 0
-1260 -335 0
-1260 -200 -215 0
-1261 225 0
-1261 386 0
-1261 400 0
-1261 -263 0
-1261 -267 0
-1261 -287 0
-1261 -291 0
-1261 -335 0
-1261 -339 0
-1261 -201 -215 0
-1262 225 0
-1262 387 0
-1262 400 0
-1262 -267 0
-1262 -271 0
-1262 -291 0
-1262 -295 0
-1262 -339 0
-1262 -343 0
-1262 -202 -215 0
-1263 226 0
-1263 388 0
-1263 -189 0
-1263 -190 0
-1263 -191 0
-1263 -207 405 0
-1263 -207 -252 0
-1263 -207 -256 0
-1263 -207 -260 0
-1263 -207 -276 0
-1263 -207 -280 0
-1263 -207 -284 0
-1263 -207 -300 0
-1263 -207 -304 0
-1263 -207 -308 0
-1263 -207 -203 -220 0
-1263 -208 406 0
-1263 -208 -253 0
-1263 -208 -257 0
-1263 -208 -261 0
-1263 -208 -277 0
-1263 -208 -281 0
-1263 -208 -285 0
-1263 -208 -301 0
-1263 -208 -305 0
-1263 -208 -309 0
-1263 -208 -203 -221 0
-1263 -209 407 0
-1263 -209 -254 0
-1263 -209 -258 0
-1263 -209 -262 0
-1263 -209 -278 0
-1263 -209 -282 0
-1263 -209 -286 0
-1263 -209 -302 0
-1263 -209 -306 0
-1263 -209 -310 0
-1263 -209 -203 -222 0
-1263 -210 0
-1264 226 0
-1264 389 0
-1264 -186 0
-1264 -190 0
-1264 -191 0
-1264 -207 405 0
-1264 -207 -256 0
-1264 -207 -260 0
-1264 -207 -264 0
-1264 -207 -280 0
-1264 -207 -284 0
-1264 -207 -288 0
-1264 -207 -304 0
-1264 -207 -308 0
-1264 -207 -312 0
-1264 -207 -204 -220 0
-1264 -208 406 0
-1264 -208 -257 0
-1264 -208 -261 0
-1264 -208 -265 0
-1264 -208 -281 0
-1264 -208 -285 0
-1264 -208 -289 0
-1264 -208 -305 0
-1264 -208 -309 0
-1264 -208 -313 0
-1264 -208 -204 -221 0
-1264 -209 407 0
-1264 -209 -258 0
-1264 -209 -262 0
-1264 -209 -266 0
-1264 -209 -282 0
-1264 -209 -286 0
-1264 -209 -290 0
-1264 -209 -306 0
-1264 -209 -310 0
-1264 -209 -314 0
-1264 -209 -204 -222 0
-1264 -210 0
-1265 226 0
-1265 390 0
-1265 -186 0
-1265 -187 0
-1265 -191 0
-1265 -207 405 0
-1265 -207 -260 0
-1265 -207 -264 0
-1265 -207 -268 0
-1265 -207 -284 0
-1265 -207 -288 0
-1265 -207 -292 0
-1265 -207 -308 0
-1265 -207 -312 0
-1265 -207 -316 0
-1265 -207 -205 -220 0
-1265 -208 406 0
-1265 -208 -261 0
-1265 -208 -265 0
-1265 -208 -269 0
-1265 -208 -285 0
-1265 -208 -289 0
-1265 -208 -293 0
-1265 -208 -309 0
-1265 -208 -313 0
-1265 -208 -317 0
-1265 -208 -205 -221 0
-1265 -209 407 0
-1265 -209 -262 0
-1265 -209 -266 0
-1265 -209 -270 0
-1265 -209 -286 0
-1265 -209 -290 0
-1265 -209 -294 0
-1265 -209 -310 0
-1265 -209 -314 0
-1265 -209 -318 0
-1265 -209 -205 -222 0
-1265 -210 0
-1266 226 0
-1266 391 0
-1266 -186 0
-1266 -187 0
-1266 -188 0
-1266 -207 405 0
-1266 -207 -264 0
-1266 -207 -268 0
-1266 -207 -272 0
-1266 -207 -288 0
-1266 -207 -292 0
-1266 -207 -296 0
-1266 -207 -312 0
-1266 -207 -316 0
-1266 -207 -320 0
-1266 -207 -206 -220 0
-1266 -208 406 0
-1266 -208 -265 0
-1266 -208 -269 0
-1266 -208 -273 0
-1266 -208 -289 0
-1266 -208 -293 0
-1266 -208 -297 0
-1266 -208 -313 0
-1266 -208 -317 0
-1266 -208 -321 0
-1266 -208 -206 -221 0
-1266 -209 407 0
-1266 -209 -266 0
-1266 -209 -270 0
-1266 -209 -274 0
-1266 -209 -290 0
-1266 -209 -294 0
-1266 -209 -298 0
-1266 -209 -314 0
-1266 -209 -318 0
-1266 -209 -322 0
-1266 -209 -206 -222 0
-1266 -210 0
-1267 226 0
-1267 388 0
-1267 -195 0
-1267 -196 0
-1267 -197 0
-1267 -211 405 0
-1267 -211 -252 0
-1267 -211 -256 0
-1267 -211 -260 0
-1267 -211 -276 0
-1267 -211 -280 0
-1267 -211 -284 0
-1267 -211 -300 0
-1267 -211 -304 0
-1267 -211 -308 0
-1267 -211 -203 -220 0
-1267 -212 406 0
-1267 -212 -253 0
-1267 -212 -257 0
-1267 -212 -261 0
-1267 -212 -277 0
-1267 -212 -281 0
-1267 -212 -285 0
-1267 -212 -301 0
-1267 -212 -305 0
-1267 -212 -309 0
-1267 -212 -203 -221 0
-1267 -213 407 0
-1267 -213 -254 0
-1267 -213 -258 0
-1267 -213 -262 0
-1267 -213 -278 0
-1267 -213 -282 0
-1267 -213 -286 0
-1267 -213 -302 0
-1267 -213 -306 0
-1267 -213 -310 0
-1267 -213 -203 -222 0
-1267 -214 0
-1268 226 0
-1268 389 0
-1268 -192 0
-1268 -196 0
-1268 -197 0
-1268 -211 405 0
-1268 -211 -256 0
-1268 -211 -260 0
-1268 -211 -264 0
-1268 -211 -280 0
-1268 -211 -284 0
-1268 -211 -288 0
-1268 -211 -304 0
-1268 -211 -308 0
-1268 -211 -312 0
-1268 -211 -204 -220 0
-1268 -212 406 0
-1268 -212 -257 0
-1268 -212 -261 0
-1268 -212 -265 0
-1268 -212 -281 0
-1268 -212 -285 0
-1268 -212 -289 0
-1268 -212 -305 0
-1268 -212 -309 0
-1268 -212 -313 0
-1268 -212 -204 -221 0
-1268 -213 407 0
-1268 -213 -258 0
-1268 -213 -262 0
-1268 -213 -266 0
-1268 -213 -282 0
-1268 -213 -286 0
-1268 -213 -290 0
-1268 -213 -306 0
-1268 -213 -310 0
-1268 -213 -314 0
-1268 -213 -204 -222 0
-1268 -214 0
-1269 226 0
-1269 390 0
-1269 -192 0
-1269 -193 0
-1269 -197 0
-1269 -211 405 0
-1269 -211 -260 0
-1269 -211 -264 0
-1269 -211 -268 0
-1269 -211 -284 0
-1269 -211 -288 0
-1269 -211 -292 0
-1269 -211 -308 0
-1269 -211 -312 0
-1269 -211 -316 0
-1269 -211 -205 -220 0
-1269 -212 406 0
-1269 -212 -261 0
-1269 -212 -265 0
-1269 -212 -269 0
-1269 -212 -285 0
-1269 -212 -289 0
-1269 -212 -293 0
-1269 -212 -309 0
-1269 -212 -313 0
-1269 -212 -317 0
-1269 -212 -205 -221 0
-1269 -213 407 0
-1269 -213 -262 0
-1269 -213 -266 0
-1269 -213 -270 0
-1269 -213 -286 0
-1269 -213 -290 0
-1269 -213 -294 0
-1269 -213 -310 0
-1269 -213 -314 0
-1269 -213 -318 0
-1269 -213 -205 -222 0
-1269 -214 0
-1270 226 0
-1270 391 0
-1270 -192 0
-1270 -193 0
-1270 -194 0
-1270 -211 405 0
-1270 -211 -264 0
-1270 -211 -268 0
-1270 -211 -272 0
-1270 -211 -288 0
-1270 -211 -292 0
-1270 -211 -296 0
-1270 -211 -312 0
-1270 -211 -316 0
-1270 -211 -320 0
-1270 -211 -206 -220 0
-1270 -212 406 0
-1270 -212 -265 0
-1270 -212 -269 0
-1270 -212 -273 0
-1270 -212 -289 0
-1270 -212 -293 0
-1270 -212 -297 0
-1270 -212 -313 0
-1270 -212 -317 0
-1270 -212 -321 0
-1270 -212 -206 -221 0
-1270 -213 407 0
-1270 -213 -266 0
-1270 -213 -270 0
-1270 -213 -274 0
-1270 -213 -290 0
-1270 -213 -294 0
-1270 -213 -298 0
-1270 -213 -314 0
-1270 -213 -318 0
-1270 -213 -322 0
-1270 -213 -206 -222 0
-1270 -214 0
-1271 226 0
-1271 388 0
-1271 -201 0
-1271 -202 0
-1271 -215 405 0
-1271 -215 -252 0
-1271 -215 -256 0
-1271 -215 -260 0
-1271 -215 -276 0
-1271 -215 -280 0
-1271 -215 -284 0
-1271 -215 -300 0
-1271 -215 -304 0
-1271 -215 -308 0
-1271 -215 -203 -220 0
-1271 -216 406 0
-1271 -216 -253 0
-1271 -216 -257 0
-1271 -216 -261 0
-1271 -216 -277 0
-1271 -216 -281 0
-1271 -216 -285 0
-1271 -216 -301 0
-1271 -216 -305 0
-1271 -216 -309 0
-1271 -216 -203 -221 0
-1271 -217 407 0
-1271 -217 -254 0
-1271 -217 -258 0
-1271 -217 -262 0
-1271 -217 -278 0
-1271 -217 -282 0
-1271 -217 -286 0
-1271 -217 -302 0
-1271 -217 -306 0
-1271 -217 -310 0
-1271 -217 -203 -222 0
-1271 -218 0
-1272 226 0
-1272 389 0
-1272 -202 0
-1272 -215 405 0
-1272 -215 -256 0
-1272 -215 -260 0
-1272 -215 -264 0
-1272 -215 -280 0
-1272 -215 -284 0
-1272 -215 -288 0
-1272 -215 -304 0
-1272 -215 -308 0
-1272 -215 -312 0
-1272 -215 -204 -220 0
-1272 -216 406 0
-1272 -216 -257 0
-1272 -216 -261 0
-1272 -216 -265 0
-1272 -216 -281 0
-1272 -216 -285 0
-1272 -216 -289 0
-1272 -216 -305 0
-1272 -216 -309 0
-1272 -216 -313 0
-1272 -216 -204 -221 0
-1272 -217 407 0
-1272 -217 -258 0
-1272 -217 -262 0
-1272 -217 -266 0
-1272 -217 -282 0
-1272 -217 -286 0
-1272 -217 -290 0
-1272 -217 -306 0
-1272 -217 -310 0
-1272 -217 -314 0
-1272 -217 -204 -222 0
-1272 -218 0
-1273 226 0
-1273 390 0
-1273 -198 0
-1273 -215 405 0
-1273 -215 -260 0
-1273 -215 -264 0
-1273 -215 -268 0
-1273 -215 -284 0
-1273 -215 -288 0
-1273 -215 -292 0
-1273 -215 -308 0
-1273 -215 -312 0
-1273 -215 -316 0
-1273 -215 -205 -220 0
-1273 -216 406 0
-1273 -216 -261 0
-1273 -216 -265 0
-1273 -216 -269 0
-1273 -216 -285 0
-1273 -216 -289 0
-1273 -216 -293 0
-1273 -216 -309 0
-1273 -216 -313 0
-1273 -216 -317 0
-1273 -216 -205 -221 0
-1273 -217 407 0
-1273 -217 -262 0
-1273 -217 -266 0
-1273 -217 -270 0
-1273 -217 -286 0
-1273 -217 -290 0
-1273 -217 -294 0
-1273 -217 -310 0
-1273 -217 -314 0
-1273 -217 -318 0
-1273 -217 -205 -222 0
-1273 -218 0
-1274 226 0
-1274 391 0
-1274 -198 0
-1274 -199 0
-1274 -215 405 0
-1274 -215 -264 0
-1274 -215 -268 0
-1274 -215 -272 0
-1274 -215 -288 0
-1274 -215 -292 0
-1274 -215 -296 0
-1274 -215 -312 0
-1274 -215 -316 0
-1274 -215 -320 0
-1274 -215 -206 -220 0
-1274 -216 406 0
-1274 -216 -265 0
-1274 -216 -269 0
-1274 -216 -273 0
-1274 -216 -289 0
-1274 -216 -293 0
-1274 -216 -297 0
-1274 -216 -313 0
-1274 -216 -317 0
-1274 -216 -321 0
-1274 -216 -206 -221 0
-1274 -217 407 0
-1274 -217 -266 0
-1274 -217 -270 0
-1274 -217 -274 0
-1274 -217 -290 0
-1274 -217 -294 0
-1274 -217 -298 0
-1274 -217 -314 0
-1274 -217 -318 0
-1274 -217 -322 0
-1274 -217 -206 -222 0
-1274 -218 0
-1275 226 0
-1275 388 0
-1275 404 0
-1275 -251 0
-1275 -255 0
-1275 -259 0
-1275 -275 0
-1275 -279 0
-1275 -283 0
-1275 -299 0
-1275 -303 0
-1275 -307 0
-1275 -203 -219 0
-1276 226 0
-1276 389 0
-1276 404 0
-1276 -255 0
-1276 -259 0
-1276 -263 0
-1276 -279 0
-1276 -283 0
-1276 -287 0
-1276 -303 0
-1276 -307 0
-1276 -311 0
-1276 -204 -219 0
-1277 226 0
-1277 390 0
-1277 404 0
-1277 -259 0
-1277 -263 0
-1277 -267 0
-1277 -283 0
-1277 -287 0
-1277 -291 0
-1277 -307 0
-1277 -311 0
-1277 -315 0
-1277 -205 -219 0
-1278 226 0
-1278 391 0
-1278 404 0
-1278 -263 0
-1278 -267 0
-1278 -271 0
-1278 -287 0
-1278 -291 0
-1278 -295 0
-1278 -311 0
-1278 -315 0
-1278 -319 0
-1278 -206 -219 0
-186 371 1195 1196 1197 1198 1199 1200 1201 1202 1203 1204 1205 1206 1207 1208 1209 1210 1211 1212 1213 1214 1215 1216 1217 1218 0
-187 372 1195 1196 1197 1198 1199 1200 1201 1202 1203 1204 1205 1206 1207 1208 1209 1210 1211 1212 1213 1214 1215 1216 1217 1218 0
-188 373 1195 1196 1197 1198 1199 1200 1201 1202 1203 1204 1205 1206 1207 1208 1209 1210 1211 1212 1213 1214 1215 1216 1217 1218 0
-189 374 1195 1196 1197 1198 1199 1200 1201 1202 1203 1204 1205 1206 1207 1208 1209 1210 1211 1212 1213 1214 1215 1216 1217 1218 0
-190 375 1195 1196 1197 1198 1199 1200 1201 1202 1203 1204 1205 1206 1207 1208 1209 1210 1211 1212 1213 1214 1215 1216 1217 1218 0
-191 376 1195 1196 1197 1198 1199 1200 1201 1202 1203 1204 1205 1206 1207 1208 1209 1210 1211 1212 1213 1214 1215 1216 1217 1218 0
-207 392 1195 1196 1197 1198 1199 1200 1201 1202 1203 1204 1205 1206 1207 1208 1209 1210 1211 1212 1213 1214 1215 1216 1217 1218 0
-208 393 1195 1196 1197 1198 1199 1200 1201 1202 1203 1204 1205 1206 1207 1208 1209 1210 1211 1212 1213 1214 1215 1216 1217 1218 0
-209 394 1195 1196 1197 1198 1199 1200 1201 1202 1203 1204 1205 1206 1207 1208 1209 1210 1211 1212 1213 1214 1215 1216 1217 1218 0
-210 395 1195 1196 1197 1198 1199 1200 1201 1202 1203 1204 1205 1206 1207 1208 1209 1210 1211 1212 1213 1214 1215 1216 1217 1218 0
-192 377 1219 1220 1221 1222 1223 1224 1225 1226 1227 1228 1229 1230 1231 1232 1233 1234 1235 1236 1237 1238 1239 1240 1241 1242 0
-193 378 1219 1220 1221 1222 1223 1224 1225 1226 1227 1228 1229 1230 1231 1232 1233 1234 1235 1236 1237 1238 1239 1240 1241 1242 0
-194 379 1219 1220 1221 1222 1223 1224 1225 1226 1227 1228 1229 1230 1231 1232 1233 1234 1235 1236 1237 1238 1239 1240 1241 1242 0
-195 380 1219 1220 1221 1222 1223 1224 1225 1226 1227 1228 1229 1230 1231 1232 1233 1234 1235 1236 1237 1238 1239 1240 1241 1242 0
-196 381 1219 1220 1221 1222 1223 1224 1225 1226 1227 1228 1229 1230 1231 1232 1233 1234 1235 1236 1237 1238 1239 1240 1241 1242 0
-197 382 1219 1220 1221 1222 1223 1224 1225 1226 1227 1228 1229 1230 1231 1232 1233 1234 1235 1236 1237 1238 1239 1240 1241 1242 0
-211 396 1219 1220 1221 1222 1223 1224 1225 1226 1227 1228 1229 1230 1231 1232 1233 1234 1235 1236 1237 1238 1239 1240 1241 1242 0
-212 397 1219 1220 1221 1222 1223 1224 1225 1226 1227 1228 1229 1230 1231 1232 1233 1234 1235 1236 1237 1238 1239 1240 1241 1242 0
-213 398 1219 1220 1221 1222 1223 1224 1225 1226 1227 1228 1229 1230 1231 1232 1233 1234 1235 1236 1237 1238 1239 1240 1241 1242 0
-214 399 1219 1220 1221 1222 1223 1224 1225 1226 1227 1228 1229 1230 1231 1232 1233 1234 1235 1236 1237 1238 1239 1240 1241 1242 0
-198 383 1243 1244 1245 1246 1247 1248 1249 1250 1251 1252 1253 1254 1255 1256 1257 1258 1259 1260 1261 1262 0
-199 384 1243 1244 1245 1246 1247 1248 1249 1250 1251 1252 1253 1254 1255 1256 1257 1258 1259 1260 1261 1262 0
-200 385 1243 1244 1245 1246 1247 1248 1249 1250 1251 1252 1253 1254 1255 1256 1257 1258 1259 1260 1261 1262 0
-201 386 1243 1244 1245 1246 1247 1248 1249 1250 1251 1252 1253 1254 1255 1256 1257 1258 1259 1260 1261 1262 0
-202 387 1243 1244 1245 1246 1247 1248 1249 1250 1251 1252 1253 1254 1255 1256 1257 1258 1259 1260 1261 1262 0
-215 400 1243 1244 1245 1246 1247 1248 1249 1250 1251 1252 1253 1254 1255 1256 1257 1258 1259 1260 1261 1262 0
-216 401 1243 1244 1245 1246 1247 1248 1249 1250 1251 1252 1253 1254 1255 1256 1257 1258 1259 1260 1261 1262 0
-217 402 1243 1244 1245 1246 1247 1248 1249 1250 1251 1252 1253 1254 1255 1256 1257 1258 1259 1260 1261 1262 0
-218 403 1243 1244 1245 1246 1247 1248 1249 1250 1251 1252 1253 1254 1255 1256 1257 1258 1259 1260 1261 1262 0
-203 388 1263 1264 1265 1266 1267 1268 1269 1270 1271 1272 1273 1274 1275 1276 1277 1278 0
-204 389 1263 1264 1265 1266 1267 1268 1269 1270 1271 1272 1273 1274 1275 1276 1277 1278 0
-205 390 1263 1264 1265 1266 1267 1268 1269 1270 1271 1272 1273 1274 1275 1276 1277 1278 0
-206 391 1263 1264 1265 1266 1267 1268 1269 1270 1271 1272 1273 1274 1275 1276 1277 1278 0
-219 404 1263 1264 1265 1266 1267 1268 1269 1270 1271 1272 1273 1274 1275 1276 1277 1278 0
-220 405 1263 1264 1265 1266 1267 1268 1269 1270 1271 1272 1273 1274 1275 1276 1277 1278 0
-221 406 1263 1264 1265 1266 1267 1268 1269 1270 1271 1272 1273 1274 1275 1276 1277 1278 0
-222 407 1263 1264 1265 1266 1267 1268 1269 1270 1271 1272 1273 1274 1275 1276 1277 1278 0
-1279 -1280 0
-1279 -1281 0
-1279 -1282 0
-1279 -1283 0
-1279 -1284 0
-1279 -1285 0
-1279 -1286 0
-1279 -1287 0
-1279 -1288 0
-1279 -1289 0
-1279 -1290 0
-1279 -1291 0
-1279 -1292 0
-1279 -1293 0
-1279 -1294 0
-1279 -1295 0
-1279 -1296 0
-1279 -1297 0
-1279 -1298 0
-1279 -1299 0
-1279 -1300 0
-1279 -1301 0
-1279 -1302 0
-1279 -1303 0
-1279 -1304 0
-1279 -1305 0
-1279 -1306 0
-1279 -1307 0
-1279 -1308 0
-1279 -1309 0
-1279 -1310 0
-1279 -1311 0
-1279 -1312 0
-1279 -1313 0
-1279 -1314 0
-1279 -1315 0
-1279 -1316 0
-1279 -1317 0
-1279 -1318 0
-1279 -1319 0
-1279 -1320 0
-1279 -1321 0
-1279 -1322 0
-1279 -1323 0
-1279 -1324 0
-1279 -1325 0
-1279 -1326 0
-1279 -1327 0
-1279 -1328 0
-1279 -1329 0
-1279 -1330 0
-1279 -1331 0
-1279 -1332 0
-1279 -1333 0
-1279 -1334 0
-1279 -1335 0
-1279 -1336 0
-1279 -1337 0
-1279 -1338 0
-1279 -1339 0
-1279 -1340 0
-1279 -1341 0
-1279 -1342 0
-1279 -1343 0
-1279 -1344 0
-1279 -1345 0
-1279 -1346 0
-1279 -1347 0
-1279 -1348 0
-1279 -1349 0
-1279 -1350 0
-1279 -1351 0
-1279 -1352 0
-1279 -1353 0
-1279 -1354 0
-1279 -1355 0
-1279 -1356 0
-1279 -1357 0
-1279 -1358 0
-1279 -1359 0
-1279 -1360 0
-1279 -1361 0
-1279 -1362 0
-1280 -1281 0
-1280 -1282 0
-1280 -1283 0
-1280 -1284 0
-1280 -1285 0
-1280 -1286 0
-1280 -1287 0
-1280 -1288 0
-1280 -1289 0
-1280 -1290 0
-1280 -1291 0
-1280 -1292 0
-1280 -1293 0
-1280 -1294 0
-1280 -1295 0
-1280 -1296 0
-1280 -1297 0
-1280 -1298 0
-1280 -1299 0
-1280 -1300 0
-1280 -1301 0
-1280 -1302 0
-1280 -1303 0
-1280 -1304 0
-1280 -1305 0
-1280 -1306 0
-1280 -1307 0
-1280 -1308 0
-1280 -1309 0
-1280 -1310 0
-1280 -1311 0
-1280 -1312 0
-1280 -1313 0
-1280 -1314 0
-1280 -1315 0
-1280 -1316 0
-1280 -1317 0
-1280 -1318 0
-1280 -1319 0
-1280 -1320 0
-1280 -1321 0
-1280 -1322 0
-1280 -1323 0
-1280 -1324 0
-1280 -1325 0
-1280 -1326 0
-1280 -1327 0
-1280 -1328 0
-1280 -1329 0
-1280 -1330 0
-1280 -1331 0
-1280 -1332 0
-1280 -1333 0
-1280 -1334 0
-1280 -1335 0
-1280 -1336 0
-1280 -1337 0
-1280 -1338 0
-1280 -1339 0
-1280 -1340 0
-1280 -1341 0
-1280 -1342 0
-1280 -1343 0
-1280 -1344 0
-1280 -1345 0
-1280 -1346 0
-1280 -1347 0
-1280 -1348 0
-1280 -1349 0
-1280 -1350 0
-1280 -1351 0
-1280 -1352 0
-1280 -1353 0
-1280 -1354 0
-1280 -1355 0
-1280 -1356 0
-1280 -1357 0
-1280 -1358 0
-1280 -1359 0
-1280 -1360 0
-1280 -1361 0
-1280 -1362 0
-1281 -1282 0
-1281 -1283 0
-1281 -1284 0
-1281 -1285 0
-1281 -1286 0
-1281 -1287 0
-1281 -1288 0
-1281 -1289 0
-1281 -1290 0
-1281 -1291 0
-1281 -1292 0
-1281 -1293 0
-1281 -1294 0
-1281 -1295 0
-1281 -1296 0
-1281 -1297 0
-1281 -1298 0
-1281 -1299 0
-1281 -1300 0
-1281 -1301 0
-1281 -1302 0
-1281 -1303 0
-1281 -1304 0
-1281 -1305 0
-1281 -1306 0
-1281 -1307 0
-1281 -1308 0
-1281 -1309 0
-1281 -1310 0
-1281 -1311 0
-1281 -1312 0
-1281 -1313 0
-1281 -1314 0
-1281 -1315 0
-1281 -1316 0
-1281 -1317 0
-1281 -1318 0
-1281 -1319 0
-1281 -1320 0
-1281 -1321 0
-1281 -1322 0
-1281 -1323 0
-1281 -1324 0
-1281 -1325 0
-1281 -1326 0
-1281 -1327 0
-1281 -1328 0
-1281 -1329 0
-1281 -1330 0
-1281 -1331 0
-1281 -1332 0
-1281 -1333 0
-1281 -1334 0
-1281 -1335 0
-1281 -1336 0
-1281 -1337 0
-1281 -1338 0
-1281 -1339 0
-1281 -1340 0
-1281 -1341 0
-1281 -1342 0
-1281 -1343 0
-1281 -1344 0
-1281 -1345 0
-1281 -1346 0
-1281 -1347 0
-1281 -1348 0
-1281 -1349 0
-1281 -1350 0
-1281 -1351 0
-1281 -1352 0
-1281 -1353 0
-1281 -1354 0
-1281 -1355 0
-1281 -1356 0
-1281 -1357 0
-1281 -1358 0
-1281 -1359 0
-1281 -1360 0
-1281 -1361 0
-1281 -1362 0
-1282 -1283 0
-1282 -1284 0
-1282 -1285 0
-1282 -1286 0
-1282 -1287 0
-1282 -1288 0
-1282 -1289 0
-1282 -1290 0
-1282 -1291 0
-1282 -1292 0
-1282 -1293 0
-1282 -1294 0
-1282 -1295 0
-1282 -1296 0
-1282 -1297 0
-1282 -1298 0
-1282 -1299 0
-1282 -1300 0
-1282 -1301 0
-1282 -1302 0
-1282 -1303 0
-1282 -1304 0
-1282 -1305 0
-1282 -1306 0
-1282 -1307 0
-1282 -1308 0
-1282 -1309 0
-1282 -1310 0
-1282 -1311 0
-1282 -1312 0
-1282 -1313 0
-1282 -1314 0
-1282 -1315 0
-1282 -1316 0
-1282 -1317 0
-1282 -1318 0
-1282 -1319 0
-1282 -1320 0
-1282 -1321 0
-1282 -1322 0
-1282 -1323 0
-1282 -1324 0
-1282 -1325 0
-1282 -1326 0
-1282 -1327 0
-1282 -1328 0
-1282 -1329 0
-1282 -1330 0
-1282 -1331 0
-1282 -1332 0
-1282 -1333 0
-1282 -1334 0
-1282 -1335 0
-1282 -1336 0
-1282 -1337 0
-1282 -1338 0
-1282 -1339 0
-1282 -1340 0
-1282 -1341 0
-1282 -1342 0
-1282 -1343 0
-1282 -1344 0
-1282 -1345 0
-1282 -1346 0
-1282 -1347 0
-1282 -1348 0
-1282 -1349 0
-1282 -1350 0
-1282 -1351 0
-1282 -1352 0
-1282 -1353 0
-1282 -1354 0
-1282 -1355 0
-1282 -1356 0
-1282 -1357 0
-1282 -1358 0
-1282 -1359 0
-1282 -1360 0
-1282 -1361 0
-1282 -1362 0
-1283 -1284 0
-1283 -1285 0
-1283 -1286 0
-1283 -1287 0
-1283 -1288 0
-1283 -1289 0
-1283 -1290 0
-1283 -1291 0
-1283 -1292 0
-1283 -1293 0
-1283 -1294 0
-1283 -1295 0
-1283 -1296 0
-1283 -1297 0
-1283 -1298 0
-1283 -1299 0
-1283 -1300 0
-1283 -1301 0
-1283 -1302 0
-1283 -1303 0
-1283 -1304 0
-1283 -1305 0
-1283 -1306 0
-1283 -1307 0
-1283 -1308 0
-1283 -1309 0
-1283 -1310 0
-1283 -1311 0
-1283 -1312 0
-1283 -1313 0
-1283 -1314 0
-1283 -1315 0
-1283 -1316 0
-1283 -1317 0
-1283 -1318 0
-1283 -1319 0
-1283 -1320 0
-1283 -1321 0
-1283 -1322 0
-1283 -1323 0
-1283 -1324 0
-1283 -1325 0
-1283 -1326 0
-1283 -1327 0
-1283 -1328 0
-1283 -1329 0
-1283 -1330 0
-1283 -1331 0
-1283 -1332 0
-1283 -1333 0
-1283 -1334 0
-1283 -1335 0
-1283 -1336 0
-1283 -1337 0
-1283 -1338 0
-1283 -1339 0
-1283 -1340 0
-1283 -1341 0
-1283 -1342 0
-1283 -1343 0
-1283 -1344 0
-1283 -1345 0
-1283 -1346 0
-1283 -1347 0
-1283 -1348 0
-1283 -1349 0
-1283 -1350 0
-1283 -1351 0
-1283 -1352 0
-1283 -1353 0
-1283 -1354 0
-1283 -1355 0
-1283 -1356 0
-1283 -1357 0
-1283 -1358 0
-1283 -1359 0
-1283 -1360 0
-1283 -1361 0
-1283 -1362 0
-1284 -1285 0
-1284 -1286 0
-1284 -1287 0
-1284 -1288 0
-1284 -1289 0
-1284 -1290 0
-1284 -1291 0
-1284 -1292 0
-1284 -1293 0
-1284 -1294 0
-1284 -1295 0
-1284 -1296 0
-1284 -1297 0
-1284 -1298 0
-1284 -1299 0
-1284 -1300 0
-1284 -1301 0
-1284 -1302 0
-1284 -1303 0
-1284 -1304 0
-1284 -1305 0
-1284 -1306 0
-1284 -1307 0
-1284 -1308 0
-1284 -1309 0
-1284 -1310 0
-1284 -1311 0
-1284 -1312 0
-1284 -1313 0
-1284 -1314 0
-1284 -1315 0
-1284 -1316 0
-1284 -1317 0
-1284 -1318 0
-1284 -1319 0
-1284 -1320 0
-1284 -1321 0
-1284 -1322 0
-1284 -1323 0
-1284 -1324 0
-1284 -1325 0
-1284 -1326 0
-1284 -1327 0
-1284 -1328 0
-1284 -1329 0
-1284 -1330 0
-1284 -1331 0
-1284 -1332 0
-1284 -1333 0
-1284 -1334 0
-1284 -1335 0
-1284 -1336 0
-1284 -1337 0
-1284 -1338 0
-1284 -1339 0
-1284 -1340 0
-1284 -1341 0
-1284 -1342 0
-1284 -1343 0
-1284 -1344 0
-1284 -1345 0
-1284 -1346 0
-1284 -1347 0
-1284 -1348 0
-1284 -1349 0
-1284 -1350 0
-1284 -1351 0
-1284 -1352 0
-1284 -1353 0
-1284 -1354 0
-1284 -1355 0
-1284 -1356 0
-1284 -1357 0
-1284 -1358 0
-1284 -1359 0
-1284 -1360 0
-1284 -1361 0
-1284 -1362 0
-1285 -1286 0
-1285 -1287 0
-1285 -1288 0
-1285 -1289 0
-1285 -1290 0
-1285 -1291 0
-1285 -1292 0
-1285 -1293 0
-1285 -1294 0
-1285 -1295 0
-1285 -1296 0
-1285 -1297 0
-1285 -1298 0
-1285 -1299 0
-1285 -1300 0
-1285 -1301 0
-1285 -1302 0
-1285 -1303 0
-1285 -1304 0
-1285 -1305 0
-1285 -1306 0
-1285 -1307 0
-1285 -1308 0
-1285 -1309 0
-1285 -1310 0
-1285 -1311 0
-1285 -1312 0
-1285 -1313 0
-1285 -1314 0
-1285 -1315 0
-1285 -1316 0
-1285 -1317 0
-1285 -1318 0
-1285 -1319 0
-1285 -1320 0
-1285 -1321 0
-1285 -1322 0
-1285 -1323 0
-1285 -1324 0
-1285 -1325 0
-1285 -1326 0
-1285 -1327 0
-1285 -1328 0
-1285 -1329 0
-1285 -1330 0
-1285 -1331 0
-1285 -1332 0
-1285 -1333 0
-1285 -1334 0
-1285 -1335 0
-1285 -1336 0
-1285 -1337 0
-1285 -1338 0
-1285 -1339 0
-1285 -1340 0
-1285 -1341 0
-1285 -1342 0
-1285 -1343 0
-1285 -1344 0
-1285 -1345 0
-1285 -1346 0
-1285 -1347 0
-1285 -1348 0
-1285 -1349 0
-1285 -1350 0
-1285 -1351 0
-1285 -1352 0
-1285 -1353 0
-1285 -1354 0
-1285 -1355 0
-1285 -1356 0
-1285 -1357 0
-1285 -1358 0
-1285 -1359 0
-1285 -1360 0
-1285 -1361 0
-1285 -1362 0
-1286 -1287 0
-1286 -1288 0
-1286 -1289 0
-1286 -1290 0
-1286 -1291 0
-1286 -1292 0
-1286 -1293 0
-1286 -1294 0
-1286 -1295 0
-1286 -1296 0
-1286 -1297 0
-1286 -1298 0
-1286 -1299 0
-1286 -1300 0
-1286 -1301 0
-1286 -1302 0
-1286 -1303 0
-1286 -1304 0
-1286 -1305 0
-1286 -1306 0
-1286 -1307 0
-1286 -1308 0
-1286 -1309 0
-1286 -1310 0
-1286 -1311 0
-1286 -1312 0
-1286 -1313 0
-1286 -1314 0
-1286 -1315 0
-1286 -1316 0
-1286 -1317 0
-1286 -1318 0
-1286 -1319 0
-1286 -1320 0
-1286 -1321 0
-1286 -1322 0
-1286 -1323 0
-1286 -1324 0
-1286 -1325 0
-1286 -1326 0
-1286 -1327 0
-1286 -1328 0
-1286 -1329 0
-1286 -1330 0
-1286 -1331 0
-1286 -1332 0
-1286 -1333 0
-1286 -1334 0
-1286 -1335 0
-1286 -1336 0
-1286 -1337 0
-1286 -1338 0
-1286 -1339 0
-1286 -1340 0
-1286 -1341 0
-1286 -1342 0
-1286 -1343 0
-1286 -1344 0
-1286 -1345 0
-1286 -1346 0
-1286 -1347 0
-1286 -1348 0
-1286 -1349 0
-1286 -1350 0
-1286 -1351 0
-1286 -1352 0
-1286 -1353 0
-1286 -1354 0
-1286 -1355 0
-1286 -1356 0
-1286 -1357 0
-1286 -1358 0
-1286 -1359 0
-1286 -1360 0
-1286 -1361 0
-1286 -1362 0
-1287 -1288 0
-1287 -1289 0
-1287 -1290 0
-1287 -1291 0
-1287 -1292 0
-1287 -1293 0
-1287 -1294 0
-1287 -1295 0
-1287 -1296 0
-1287 -1297 0
-1287 -1298 0
-1287 -1299 0
-1287 -1300 0
-1287 -1301 0
-1287 -1302 0
-1287 -1303 0
-1287 -1304 0
-1287 -1305 0
-1287 -1306 0
-1287 -1307 0
-1287 -1308 0
-1287 -1309 0
-1287 -1310 0
-1287 -1311 0
-1287 -1312 0
-1287 -1313 0
-1287 -1314 0
-1287 -1315 0
-1287 -1316 0
-1287 -1317 0
-1287 -1318 0
-1287 -1319 0
-1287 -1320 0
-1287 -1321 0
-1287 -1322 0
-1287 -1323 0
-1287 -1324 0
-1287 -1325 0
-1287 -1326 0
-1287 -1327 0
-1287 -1328 0
-1287 -1329 0
-1287 -1330 0
-1287 -1331 0
-1287 -1332 0
-1287 -1333 0
-1287 -1334 0
-1287 -1335 0
-1287 -1336 0
-1287 -1337 0
-1287 -1338 0
-1287 -1339 0
-1287 -1340 0
-1287 -1341 0
-1287 -1342 0
-1287 -1343 0
-1287 -1344 0
-1287 -1345 0
-1287 -1346 0
-1287 -1347 0
-1287 -1348 0
-1287 -1349 0
-1287 -1350 0
-1287 -1351 0
-1287 -1352 0
-1287 -1353 0
-1287 -1354 0
-1287 -1355 0
-1287 -1356 0
-1287 -1357 0
-1287 -1358 0
-1287 -1359 0
-1287 -1360 0
-1287 -1361 0
-1287 -1362 0
-1288 -1289 0
-1288 -1290 0
-1288 -1291 0
-1288 -1292 0
-1288 -1293 0
-1288 -1294 0
-1288 -1295 0
-1288 -1296 0
-1288 -1297 0
-1288 -1298 0
-1288 -1299 0
-1288 -1300 0
-1288 -1301 0
-1288 -1302 0
-1288 -1303 0
-1288 -1304 0
-1288 -1305 0
-1288 -1306 0
-1288 -1307 0
-1288 -1308 0
-1288 -1309 0
-1288 -1310 0
-1288 -1311 0
-1288 -1312 0
-1288 -1313 0
-1288 -1314 0
-1288 -1315 0
-1288 -1316 0
-1288 -1317 0
-1288 -1318 0
-1288 -1319 0
-1288 -1320 0
-1288 -1321 0
-1288 -1322 0
-1288 -1323 0
-1288 -1324 0
-1288 -1325 0
-1288 -1326 0
-1288 -1327 0
-1288 -1328 0
-1288 -1329 0
-1288 -1330 0
-1288 -1331 0
-1288 -1332 0
-1288 -1333 0
-1288 -1334 0
-1288 -1335 0
-1288 -1336 0
-1288 -1337 0
-1288 -1338 0
-1288 -1339 0
-1288 -1340 0
-1288 -1341 0
-1288 -1342 0
-1288 -1343 0
-1288 -1344 0
-1288 -1345 0
-1288 -1346 0
-1288 -1347 0
-1288 -1348 0
-1288 -1349 0
-1288 -1350 0
-1288 -1351 0
-1288 -1352 0
-1288 -1353 0
-1288 -1354 0
-1288 -1355 0
-1288 -1356 0
-1288 -1357 0
-1288 -1358 0
-1288 -1359 0
-1288 -1360 0
-1288 -1361 0
-1288 -1362 0
-1289 -1290 0
-1289 -1291 0
-1289 -1292 0
-1289 -1293 0
-1289 -1294 0
-1289 -1295 0
-1289 -1296 0
-1289 -1297 0
-1289 -1298 0
-1289 -1299 0
-1289 -1300 0
-1289 -1301 0
-1289 -1302 0
-1289 -1303 0
-1289 -1304 0
-1289 -1305 0
-1289 -1306 0
-1289 -1307 0
-1289 -1308 0
-1289 -1309 0
-1289 -1310 0
-1289 -1311 0
-1289 -1312 0
-1289 -1313 0
-1289 -1314 0
-1289 -1315 0
-1289 -1316 0
-1289 -1317 0
-1289 -1318 0
-1289 -1319 0
-1289 -1320 0
-1289 -1321 0
-1289 -1322 0
-1289 -1323 0
-1289 -1324 0
-1289 -1325 0
-1289 -1326 0
-1289 -1327 0
-1289 -1328 0
-1289 -1329 0
-1289 -1330 0
-1289 -1331 0
-1289 -1332 0
-1289 -1333 0
-1289 -1334 0
-1289 -1335 0
-1289 -1336 0
-1289 -1337 0
-1289 -1338 0
-1289 -1339 0
-1289 -1340 0
-1289 -1341 0
-1289 -1342 0
-1289 -1343 0
-1289 -1344 0
-1289 -1345 0
-1289 -1346 0
-1289 -1347 0
-1289 -1348 0
-1289 -1349 0
-1289 -1350 0
-1289 -1351 0
-1289 -1352 0
-1289 -1353 0
-1289 -1354 0
-1289 -1355 0
-1289 -1356 0
-1289 -1357 0
-1289 -1358 0
-1289 -1359 0
-1289 -1360 0
-1289 -1361 0
-1289 -1362 0
-1290 -1291 0
-1290 -1292 0
-1290 -1293 0
-1290 -1294 0
-1290 -1295 0
-1290 -1296 0
-1290 -1297 0
-1290 -1298 0
-1290 -1299 0
-1290 -1300 0
-1290 -1301 0
-1290 -1302 0
-1290 -1303 0
-1290 -1304 0
-1290 -1305 0
-1290 -1306 0
-1290 -1307 0
-1290 -1308 0
-1290 -1309 0
-1290 -1310 0
-1290 -1311 0
-1290 -1312 0
-1290 -1313 0
-1290 -1314 0
-1290 -1315 0
-1290 -1316 0
-1290 -1317 0
-1290 -1318 0
-1290 -1319 0
-1290 -1320 0
-1290 -1321 0
-1290 -1322 0
-1290 -1323 0
-1290 -1324 0
-1290 -1325 0
-1290 -1326 0
-1290 -1327 0
-1290 -1328 0
-1290 -1329 0
-1290 -1330 0
-1290 -1331 0
-1290 -1332 0
-1290 -1333 0
-1290 -1334 0
-1290 -1335 0
-1290 -1336 0
-1290 -1337 0
-1290 -1338 0
-1290 -1339 0
-1290 -1340 0
-1290 -1341 0
-1290 -1342 0
-1290 -1343 0
-1290 -1344 0
-1290 -1345 0
-1290 -1346 0
-1290 -1347 0
-1290 -1348 0
-1290 -1349 0
-1290 -1350 0
-1290 -1351 0
-1290 -1352 0
-1290 -1353 0
-1290 -1354 0
-1290 -1355 0
-1290 -1356 0
-1290 -1357 0
-1290 -1358 0
-1290 -1359 0
-1290 -1360 0
-1290 -1361 0
-1290 -1362 0
-1291 -1292 0
-1291 -1293 0
-1291 -1294 0
-1291 -1295 0
-1291 -1296 0
-1291 -1297 0
-1291 -1298 0
-1291 -1299 0
-1291 -1300 0
-1291 -1301 0
-1291 -1302 0
-1291 -1303 0
-1291 -1304 0
-1291 -1305 0
-1291 -1306 0
-1291 -1307 0
-1291 -1308 0
-1291 -1309 0
-1291 -1310 0
-1291 -1311 0
-1291 -1312 0
-1291 -1313 0
-1291 -1314 0
-1291 -1315 0
-1291 -1316 0
-1291 -1317 0
-1291 -1318 0
-1291 -1319 0
-1291 -1320 0
-1291 -1321 0
-1291 -1322 0
-1291 -1323 0
-1291 -1324 0
-1291 -1325 0
-1291 -1326 0
-1291 -1327 0
-1291 -1328 0
-1291 -1329 0
-1291 -1330 0
-1291 -1331 0
-1291 -1332 0
-1291 -1333 0
-1291 -1334 0
-1291 -1335 0
-1291 -1336 0
-1291 -1337 0
-1291 -1338 0
-1291 -1339 0
-1291 -1340 0
-1291 -1341 0
-1291 -1342 0
-1291 -1343 0
-1291 -1344 0
-1291 -1345 0
-1291 -1346 0
-1291 -1347 0
-1291 -1348 0
-1291 -1349 0
-1291 -1350 0
-1291 -1351 0
-1291 -1352 0
-1291 -1353 0
-1291 -1354 0
-1291 -1355 0
-1291 -1356 0
-1291 -1357 0
-1291 -1358 0
-1291 -1359 0
-1291 -1360 0
-1291 -1361 0
-1291 -1362 0
-1292 -1293 0
-1292 -1294 0
-1292 -1295 0
-1292 -1296 0
-1292 -1297 0
-1292 -1298 0
-1292 -1299 0
-1292 -1300 0
-1292 -1301 0
-1292 -1302 0
-1292 -1303 0
-1292 -1304 0
-1292 -1305 0
-1292 -1306 0
-1292 -1307 0
-1292 -1308 0
-1292 -1309 0
-1292 -1310 0
-1292 -1311 0
-1292 -1312 0
-1292 -1313 0
-1292 -1314 0
-1292 -1315 0
-1292 -1316 0
-1292 -1317 0
-1292 -1318 0
-1292 -1319 0
-1292 -1320 0
-1292 -1321 0
-1292 -1322 0
-1292 -1323 0
-1292 -1324 0
-1292 -1325 0
-1292 -1326 0
-1292 -1327 0
-1292 -1328 0
-1292 -1329 0
-1292 -1330 0
-1292 -1331 0
-1292 -1332 0
-1292 -1333 0
-1292 -1334 0
-1292 -1335 0
-1292 -1336 0
-1292 -1337 0
-1292 -1338 0
-1292 -1339 0
-1292 -1340 0
-1292 -1341 0
-1292 -1342 0
-1292 -1343 0
-1292 -1344 0
-1292 -1345 0
-1292 -1346 0
-1292 -1347 0
-1292 -1348 0
-1292 -1349 0
-1292 -1350 0
-1292 -1351 0
-1292 -1352 0
-1292 -1353 0
-1292 -1354 0
-1292 -1355 0
-1292 -1356 0
-1292 -1357 0
-1292 -1358 0
-1292 -1359 0
-1292 -1360 0
-1292 -1361 0
-1292 -1362 0
-1293 -1294 0
-1293 -1295 0
-1293 -1296 0
-1293 -1297 0
-1293 -1298 0
-1293 -1299 0
-1293 -1300 0
-1293 -1301 0
-1293 -1302 0
-1293 -1303 0
-1293 -1304 0
-1293 -1305 0
-1293 -1306 0
-1293 -1307 0
-1293 -1308 0
-1293 -1309 0
-1293 -1310 0
-1293 -1311 0
-1293 -1312 0
-1293 -1313 0
-1293 -1314 0
-1293 -1315 0
-1293 -1316 0
-1293 -1317 0
-1293 -1318 0
-1293 -1319 0
-1293 -1320 0
-1293 -1321 0
-1293 -1322 0
-1293 -1323 0
-1293 -1324 0
-1293 -1325 0
-1293 -1326 0
-1293 -1327 0
-1293 -1328 0
-1293 -1329 0
-1293 -1330 0
-1293 -1331 0
-1293 -1332 0
-1293 -1333 0
-1293 -1334 0
-1293 -1335 0
-1293 -1336 0
-1293 -1337 0
-1293 -1338 0
-1293 -1339 0
-1293 -1340 0
-1293 -1341 0
-1293 -1342 0
-1293 -1343 0
-1293 -1344 0
-1293 -1345 0
-1293 -1346 0
-1293 -1347 0
-1293 -1348 0
-1293 -1349 0
-1293 -1350 0
-1293 -1351 0
-1293 -1352 0
-1293 -1353 0
-1293 -1354 0
-1293 -1355 0
-1293 -1356 0
-1293 -1357 0
-1293 -1358 0
-1293 -1359 0
-1293 -1360 0
-1293 -1361 0
-1293 -1362 0
-1294 -1295 0
-1294 -1296 0
-1294 -1297 0
-1294 -1298 0
-1294 -1299 0
-1294 -1300 0
-1294 -1301 0
-1294 -1302 0
-1294 -1303 0
-1294 -1304 0
-1294 -1305 0
-1294 -1306 0
-1294 -1307 0
-1294 -1308 0
-1294 -1309 0
-1294 -1310 0
-1294 -1311 0
-1294 -1312 0
-1294 -1313 0
-1294 -1314 0
-1294 -1315 0
-1294 -1316 0
-1294 -1317 0
-1294 -1318 0
-1294 -1319 0
-1294 -1320 0
-1294 -1321 0
-1294 -1322 0
-1294 -1323 0
-1294 -1324 0
-1294 -1325 0
-1294 -1326 0
-1294 -1327 0
-1294 -1328 0
-1294 -1329 0
-1294 -1330 0
-1294 -1331 0
-1294 -1332 0
-1294 -1333 0
-1294 -1334 0
-1294 -1335 0
-1294 -1336 0
-1294 -1337 0
-1294 -1338 0
-1294 -1339 0
-1294 -1340 0
-1294 -1341 0
-1294 -1342 0
-1294 -1343 0
-1294 -1344 0
-1294 -1345 0
-1294 -1346 0
-1294 -1347 0
-1294 -1348 0
-1294 -1349 0
-1294 -1350 0
-1294 -1351 0
-1294 -1352 0
-1294 -1353 0
-1294 -1354 0
-1294 -1355 0
-1294 -1356 0
-1294 -1357 0
-1294 -1358 0
-1294 -1359 0
-1294 -1360 0
-1294 -1361 0
-1294 -1362 0
-1295 -1296 0
-1295 -1297 0
-1295 -1298 0
-1295 -1299 0
-1295 -1300 0
-1295 -1301 0
-1295 -1302 0
-1295 -1303 0
-1295 -1304 0
-1295 -1305 0
-1295 -1306 0
-1295 -1307 0
-1295 -1308 0
-1295 -1309 0
-1295 -1310 0
-1295 -1311 0
-1295 -1312 0
-1295 -1313 0
-1295 -1314 0
-1295 -1315 0
-1295 -1316 0
-1295 -1317 0
-1295 -1318 0
-1295 -1319 0
-1295 -1320 0
-1295 -1321 0
-1295 -1322 0
-1295 -1323 0
-1295 -1324 0
-1295 -1325 0
-1295 -1326 0
-1295 -1327 0
-1295 -1328 0
-1295 -1329 0
-1295 -1330 0
-1295 -1331 0
-1295 -1332 0
-1295 -1333 0
-1295 -1334 0
-1295 -1335 0
-1295 -1336 0
-1295 -1337 0
-1295 -1338 0
-1295 -1339 0
-1295 -1340 0
-1295 -1341 0
-1295 -1342 0
-1295 -1343 0
-1295 -1344 0
-1295 -1345 0
-1295 -1346 0
-1295 -1347 0
-1295 -1348 0
-1295 -1349 0
-1295 -1350 0
-1295 -1351 0
-1295 -1352 0
-1295 -1353 0
-1295 -1354 0
-1295 -1355 0
-1295 -1356 0
-1295 -1357 0
-1295 -1358 0
-1295 -1359 0
-1295 -1360 0
-1295 -1361 0
-1295 -1362 0
-1296 -1297 0
-1296 -1298 0
-1296 -1299 0
-1296 -1300 0
-1296 -1301 0
-1296 -1302 0
-1296 -1303 0
-1296 -1304 0
-1296 -1305 0
-1296 -1306 0
-1296 -1307 0
-1296 -1308 0
-1296 -1309 0
-1296 -1310 0
-1296 -1311 0
-1296 -1312 0
-1296 -1313 0
-1296 -1314 0
-1296 -1315 0
-1296 -1316 0
-1296 -1317 0
-1296 -1318 0
-1296 -1319 0
-1296 -1320 0
-1296 -1321 0
-1296 -1322 0
-1296 -1323 0
-1296 -1324 0
-1296 -1325 0
-1296 -1326 0
-1296 -1327 0
-1296 -1328 0
-1296 -1329 0
-1296 -1330 0
-1296 -1331 0
-1296 -1332 0
-1296 -1333 0
-1296 -1334 0
-1296 -1335 0
-1296 -1336 0
-1296 -1337 0
-1296 -1338 0
-1296 -1339 0
-1296 -1340 0
-1296 -1341 0
-1296 -1342 0
-1296 -1343 0
-1296 -1344 0
-1296 -1345 0
-1296 -1346 0
-1296 -1347 0
-1296 -1348 0
-1296 -1349 0
-1296 -1350 0
-1296 -1351 0
-1296 -1352 0
-1296 -1353 0
-1296 -1354 0
-1296 -1355 0
-1296 -1356 0
-1296 -1357 0
-1296 -1358 0
-1296 -1359 0
-1296 -1360 0
-1296 -1361 0
-1296 -1362 0
-1297 -1298 0
-1297 -1299 0
-1297 -1300 0
-1297 -1301 0
-1297 -1302 0
-1297 -1303 0
-1297 -1304 0
-1297 -1305 0
-1297 -1306 0
-1297 -1307 0
-1297 -1308 0
-1297 -1309 0
-1297 -1310 0
-1297 -1311 0
-1297 -1312 0
-1297 -1313 0
-1297 -1314 0
-1297 -1315 0
-1297 -1316 0
-1297 -1317 0
-1297 -1318 0
-1297 -1319 0
-1297 -1320 0
-1297 -1321 0
-1297 -1322 0
-1297 -1323 0
-1297 -1324 0
-1297 -1325 0
-1297 -1326 0
-1297 -1327 0
-1297 -1328 0
-1297 -1329 0
-1297 -1330 0
-1297 -1331 0
-1297 -1332 0
-1297 -1333 0
-1297 -1334 0
-1297 -1335 0
-1297 -1336 0
-1297 -1337 0
-1297 -1338 0
-1297 -1339 0
-1297 -1340 0
-1297 -1341 0
-1297 -1342 0
-1297 -1343 0
-1297 -1344 0
-1297 -1345 0
-1297 -1346 0
-1297 -1347 0
-1297 -1348 0
-1297 -1349 0
-1297 -1350 0
-1297 -1351 0
-1297 -1352 0
-1297 -1353 0
-1297 -1354 0
-1297 -1355 0
-1297 -1356 0
-1297 -1357 0
-1297 -1358 0
-1297 -1359 0
-1297 -1360 0
-1297 -1361 0
-1297 -1362 0
-1298 -1299 0
-1298 -1300 0
-1298 -1301 0
-1298 -1302 0
-1298 -1303 0
-1298 -1304 0
-1298 -1305 0
-1298 -1306 0
-1298 -1307 0
-1298 -1308 0
-1298 -1309 0
-1298 -1310 0
-1298 -1311 0
-1298 -1312 0
-1298 -1313 0
-1298 -1314 0
-1298 -1315 0
-1298 -1316 0
-1298 -1317 0
-1298 -1318 0
-1298 -1319 0
-1298 -1320 0
-1298 -1321 0
-1298 -1322 0
-1298 -1323 0
-1298 -1324 0
-1298 -1325 0
-1298 -1326 0
-1298 -1327 0
-1298 -1328 0
-1298 -1329 0
-1298 -1330 0
-1298 -1331 0
-1298 -1332 0
-1298 -1333 0
-1298 -1334 0
-1298 -1335 0
-1298 -1336 0
-1298 -1337 0
-1298 -1338 0
-1298 -1339 0
-1298 -1340 0
-1298 -1341 0
-1298 -1342 0
-1298 -1343 0
-1298 -1344 0
-1298 -1345 0
-1298 -1346 0
-1298 -1347 0
-1298 -1348 0
-1298 -1349 0
-1298 -1350 0
-1298 -1351 0
-1298 -1352 0
-1298 -1353 0
-1298 -1354 0
-1298 -1355 0
-1298 -1356 0
-1298 -1357 0
-1298 -1358 0
-1298 -1359 0
-1298 -1360 0
-1298 -1361 0
-1298 -1362 0
-1299 -1300 0
-1299 -1301 0
-1299 -1302 0
-1299 -1303 0
-1299 -1304 0
-1299 -1305 0
-1299 -1306 0
-1299 -1307 0
-1299 -1308 0
-1299 -1309 0
-1299 -1310 0
-1299 -1311 0
-1299 -1312 0
-1299 -1313 0
-1299 -1314 0
-1299 -1315 0
-1299 -1316 0
-1299 -1317 0
-1299 -1318 0
-1299 -1319 0
-1299 -1320 0
-1299 -1321 0
-1299 -1322 0
-1299 -1323 0
-1299 -1324 0
-1299 -1325 0
-1299 -1326 0
-1299 -1327 0
-1299 -1328 0
-1299 -1329 0
-1299 -1330 0
-1299 -1331 0
-1299 -1332 0
-1299 -1333 0
-1299 -1334 0
-1299 -1335 0
-1299 -1336 0
-1299 -1337 0
-1299 -1338 0
-1299 -1339 0
-1299 -1340 0
-1299 -1341 0
-1299 -1342 0
-1299 -1343 0
-1299 -1344 0
-1299 -1345 0
-1299 -1346 0
-1299 -1347 0
-1299 -1348 0
-1299 -1349 0
-1299 -1350 0
-1299 -1351 0
-1299 -1352 0
-1299 -1353 0
-1299 -1354 0
-1299 -1355 0
-1299 -1356 0
-1299 -1357 0
-1299 -1358 0
-1299 -1359 0
-1299 -1360 0
-1299 -1361 0
-1299 -1362 0
-1300 -1301 0
-1300 -1302 0
-1300 -1303 0
-1300 -1304 0
-1300 -1305 0
-1300 -1306 0
-1300 -1307 0
-1300 -1308 0
-1300 -1309 0
-1300 -1310 0
-1300 -1311 0
-1300 -1312 0
-1300 -1313 0
-1300 -1314 0
-1300 -1315 0
-1300 -1316 0
-1300 -1317 0
-1300 -1318 0
-1300 -1319 0
-1300 -1320 0
-1300 -1321 0
-1300 -1322 0
-1300 -1323 0
-1300 -1324 0
-1300 -1325 0
-1300 -1326 0
-1300 -1327 0
-1300 -1328 0
-1300 -1329 0
-1300 -1330 0
-1300 -1331 0
-1300 -1332 0
-1300 -1333 0
-1300 -1334 0
-1300 -1335 0
-1300 -1336 0
-1300 -1337 0
-1300 -1338 0
-1300 -1339 0
-1300 -1340 0
-1300 -1341 0
-1300 -1342 0
-1300 -1343 0
-1300 -1344 0
-1300 -1345 0
-1300 -1346 0
-1300 -1347 0
-1300 -1348 0
-1300 -1349 0
-1300 -1350 0
-1300 -1351 0
-1300 -1352 0
-1300 -1353 0
-1300 -1354 0
-1300 -1355 0
-1300 -1356 0
-1300 -1357 0
-1300 -1358 0
-1300 -1359 0
-1300 -1360 0
-1300 -1361 0
-1300 -1362 0
-1301 -1302 0
-1301 -1303 0
-1301 -1304 0
-1301 -1305 0
-1301 -1306 0
-1301 -1307 0
-1301 -1308 0
-1301 -1309 0
-1301 -1310 0
-1301 -1311 0
-1301 -1312 0
-1301 -1313 0
-1301 -1314 0
-1301 -1315 0
-1301 -1316 0
-1301 -1317 0
-1301 -1318 0
-1301 -1319 0
-1301 -1320 0
-1301 -1321 0
-1301 -1322 0
-1301 -1323 0
-1301 -1324 0
-1301 -1325 0
-1301 -1326 0
-1301 -1327 0
-1301 -1328 0
-1301 -1329 0
-1301 -1330 0
-1301 -1331 0
-1301 -1332 0
-1301 -1333 0
-1301 -1334 0
-1301 -1335 0
-1301 -1336 0
-1301 -1337 0
-1301 -1338 0
-1301 -1339 0
-1301 -1340 0
-1301 -1341 0
-1301 -1342 0
-1301 -1343 0
-1301 -1344 0
-1301 -1345 0
-1301 -1346 0
-1301 -1347 0
-1301 -1348 0
-1301 -1349 0
-1301 -1350 0
-1301 -1351 0
-1301 -1352 0
-1301 -1353 0
-1301 -1354 0
-1301 -1355 0
-1301 -1356 0
-1301 -1357 0
-1301 -1358 0
-1301 -1359 0
-1301 -1360 0
-1301 -1361 0
-1301 -1362 0
-1302 -1303 0
-1302 -1304 0
-1302 -1305 0
-1302 -1306 0
-1302 -1307 0
-1302 -1308 0
-1302 -1309 0
-1302 -1310 0
-1302 -1311 0
-1302 -1312 0
-1302 -1313 0
-1302 -1314 0
-1302 -1315 0
-1302 -1316 0
-1302 -1317 0
-1302 -1318 0
-1302 -1319 0
-1302 -1320 0
-1302 -1321 0
-1302 -1322 0
-1302 -1323 0
-1302 -1324 0
-1302 -1325 0
-1302 -1326 0
-1302 -1327 0
-1302 -1328 0
-1302 -1329 0
-1302 -1330 0
-1302 -1331 0
-1302 -1332 0
-1302 -1333 0
-1302 -1334 0
-1302 -1335 0
-1302 -1336 0
-1302 -1337 0
-1302 -1338 0
-1302 -1339 0
-1302 -1340 0
-1302 -1341 0
-1302 -1342 0
-1302 -1343 0
-1302 -1344 0
-1302 -1345 0
-1302 -1346 0
-1302 -1347 0
-1302 -1348 0
-1302 -1349 0
-1302 -1350 0
-1302 -1351 0
-1302 -1352 0
-1302 -1353 0
-1302 -1354 0
-1302 -1355 0
-1302 -1356 0
-1302 -1357 0
-1302 -1358 0
-1302 -1359 0
-1302 -1360 0
-1302 -1361 0
-1302 -1362 0
-1303 -1304 0
-1303 -1305 0
-1303 -1306 0
-1303 -1307 0
-1303 -1308 0
-1303 -1309 0
-1303 -1310 0
-1303 -1311 0
-1303 -1312 0
-1303 -1313 0
-1303 -1314 0
-1303 -1315 0
-1303 -1316 0
-1303 -1317 0
-1303 -1318 0
-1303 -1319 0
-1303 -1320 0
-1303 -1321 0
-1303 -1322 0
-1303 -1323 0
-1303 -1324 0
-1303 -1325 0
-1303 -1326 0
-1303 -1327 0
-1303 -1328 0
-1303 -1329 0
-1303 -1330 0
-1303 -1331 0
-1303 -1332 0
-1303 -1333 0
-1303 -1334 0
-1303 -1335 0
-1303 -1336 0
-1303 -1337 0
-1303 -1338 0
-1303 -1339 0
-1303 -1340 0
-1303 -1341 0
-1303 -1342 0
-1303 -1343 0
-1303 -1344 0
-1303 -1345 0
-1303 -1346 0
-1303 -1347 0
-1303 -1348 0
-1303 -1349 0
-1303 -1350 0
-1303 -1351 0
-1303 -1352 0
-1303 -1353 0
-1303 -1354 0
-1303 -1355 0
-1303 -1356 0
-1303 -1357 0
-1303 -1358 0
-1303 -1359 0
-1303 -1360 0
-1303 -1361 0
-1303 -1362 0
-1304 -1305 0
-1304 -1306 0
-1304 -1307 0
-1304 -1308 0
-1304 -1309 0
-1304 -1310 0
-1304 -1311 0
-1304 -1312 0
-1304 -1313 0
-1304 -1314 0
-1304 -1315 0
-1304 -1316 0
-1304 -1317 0
-1304 -1318 0
-1304 -1319 0
-1304 -1320 0
-1304 -1321 0
-1304 -1322 0
-1304 -1323 0
-1304 -1324 0
-1304 -1325 0
-1304 -1326 0
-1304 -1327 0
-1304 -1328 0
-1304 -1329 0
-1304 -1330 0
-1304 -1331 0
-1304 -1332 0
-1304 -1333 0
-1304 -1334 0
-1304 -1335 0
-1304 -1336 0
-1304 -1337 0
-1304 -1338 0
-1304 -1339 0
-1304 -1340 0
-1304 -1341 0
-1304 -1342 0
-1304 -1343 0
-1304 -1344 0
-1304 -1345 0
-1304 -1346 0
-1304 -1347 0
-1304 -1348 0
-1304 -1349 0
-1304 -1350 0
-1304 -1351 0
-1304 -1352 0
-1304 -1353 0
-1304 -1354 0
-1304 -1355 0
-1304 -1356 0
-1304 -1357 0
-1304 -1358 0
-1304 -1359 0
-1304 -1360 0
-1304 -1361 0
-1304 -1362 0
-1305 -1306 0
-1305 -1307 0
-1305 -1308 0
-1305 -1309 0
-1305 -1310 0
-1305 -1311 0
-1305 -1312 0
-1305 -1313 0
-1305 -1314 0
-1305 -1315 0
-1305 -1316 0
-1305 -1317 0
-1305 -1318 0
-1305 -1319 0
-1305 -1320 0
-1305 -1321 0
-1305 -1322 0
-1305 -1323 0
-1305 -1324 0
-1305 -1325 0
-1305 -1326 0
-1305 -1327 0
-1305 -1328 0
-1305 -1329 0
-1305 -1330 0
-1305 -1331 0
-1305 -1332 0
-1305 -1333 0
-1305 -1334 0
-1305 -1335 0
-1305 -1336 0
-1305 -1337 0
-1305 -1338 0
-1305 -1339 0
-1305 -1340 0
-1305 -1341 0
-1305 -1342 0
-1305 -1343 0
-1305 -1344 0
-1305 -1345 0
-1305 -1346 0
-1305 -1347 0
-1305 -1348 0
-1305 -1349 0
-1305 -1350 0
-1305 -1351 0
-1305 -1352 0
-1305 -1353 0
-1305 -1354 0
-1305 -1355 0
-1305 -1356 0
-1305 -1357 0
-1305 -1358 0
-1305 -1359 0
-1305 -1360 0
-1305 -1361 0
-1305 -1362 0
-1306 -1307 0
-1306 -1308 0
-1306 -1309 0
-1306 -1310 0
-1306 -1311 0
-1306 -1312 0
-1306 -1313 0
-1306 -1314 0
-1306 -1315 0
-1306 -1316 0
-1306 -1317 0
-1306 -1318 0
-1306 -1319 0
-1306 -1320 0
-1306 -1321 0
-1306 -1322 0
-1306 -1323 0
-1306 -1324 0
-1306 -1325 0
-1306 -1326 0
-1306 -1327 0
-1306 -1328 0
-1306 -1329 0
-1306 -1330 0
-1306 -1331 0
-1306 -1332 0
-1306 -1333 0
-1306 -1334 0
-1306 -1335 0
-1306 -1336 0
-1306 -1337 0
-1306 -1338 0
-1306 -1339 0
-1306 -1340 0
-1306 -1341 0
-1306 -1342 0
-1306 -1343 0
-1306 -1344 0
-1306 -1345 0
-1306 -1346 0
-1306 -1347 0
-1306 -1348 0
-1306 -1349 0
-1306 -1350 0
-1306 -1351 0
-1306 -1352 0
-1306 -1353 0
-1306 -1354 0
-1306 -1355 0
-1306 -1356 0
-1306 -1357 0
-1306 -1358 0
-1306 -1359 0
-1306 -1360 0
-1306 -1361 0
-1306 -1362 0
-1307 -1308 0
-1307 -1309 0
-1307 -1310 0
-1307 -1311 0
-1307 -1312 0
-1307 -1313 0
-1307 -1314 0
-1307 -1315 0
-1307 -1316 0
-1307 -1317 0
-1307 -1318 0
-1307 -1319 0
-1307 -1320 0
-1307 -1321 0
-1307 -1322 0
-1307 -1323 0
-1307 -1324 0
-1307 -1325 0
-1307 -1326 0
-1307 -1327 0
-1307 -1328 0
-1307 -1329 0
-1307 -1330 0
-1307 -1331 0
-1307 -1332 0
-1307 -1333 0
-1307 -1334 0
-1307 -1335 0
-1307 -1336 0
-1307 -1337 0
-1307 -1338 0
-1307 -1339 0
-1307 -1340 0
-1307 -1341 0
-1307 -1342 0
-1307 -1343 0
-1307 -1344 0
-1307 -1345 0
-1307 -1346 0
-1307 -1347 0
-1307 -1348 0
-1307 -1349 0
-1307 -1350 0
-1307 -1351 0
-1307 -1352 0
-1307 -1353 0
-1307 -1354 0
-1307 -1355 0
-1307 -1356 0
-1307 -1357 0
-1307 -1358 0
-1307 -1359 0
-1307 -1360 0
-1307 -1361 0
-1307 -1362 0
-1308 -1309 0
-1308 -1310 0
-1308 -1311 0
-1308 -1312 0
-1308 -1313 0
-1308 -1314 0
-1308 -1315 0
-1308 -1316 0
-1308 -1317 0
-1308 -1318 0
-1308 -1319 0
-1308 -1320 0
-1308 -1321 0
-1308 -1322 0
-1308 -1323 0
-1308 -1324 0
-1308 -1325 0
-1308 -1326 0
-1308 -1327 0
-1308 -1328 0
-1308 -1329 0
-1308 -1330 0
-1308 -1331 0
-1308 -1332 0
-1308 -1333 0
-1308 -1334 0
-1308 -1335 0
-1308 -1336 0
-1308 -1337 0
-1308 -1338 0
-1308 -1339 0
-1308 -1340 0
-1308 -1341 0
-1308 -1342 0
-1308 -1343 0
-1308 -1344 0
-1308 -1345 0
-1308 -1346 0
-1308 -1347 0
-1308 -1348 0
-1308 -1349 0
-1308 -1350 0
-1308 -1351 0
-1308 -1352 0
-1308 -1353 0
-1308 -1354 0
-1308 -1355 0
-1308 -1356 0
-1308 -1357 0
-1308 -1358 0
-1308 -1359 0
-1308 -1360 0
-1308 -1361 0
-1308 -1362 0
-1309 -1310 0
-1309 -1311 0
-1309 -1312 0
-1309 -1313 0
-1309 -1314 0
-1309 -1315 0
-1309 -1316 0
-1309 -1317 0
-1309 -1318 0
-1309 -1319 0
-1309 -1320 0
-1309 -1321 0
-1309 -1322 0
-1309 -1323 0
-1309 -1324 0
-1309 -1325 0
-1309 -1326 0
-1309 -1327 0
-1309 -1328 0
-1309 -1329 0
-1309 -1330 0
-1309 -1331 0
-1309 -1332 0
-1309 -1333 0
-1309 -1334 0
-1309 -1335 0
-1309 -1336 0
-1309 -1337 0
-1309 -1338 0
-1309 -1339 0
-1309 -1340 0
-1309 -1341 0
-1309 -1342 0
-1309 -1343 0
-1309 -1344 0
-1309 -1345 0
-1309 -1346 0
-1309 -1347 0
-1309 -1348 0
-1309 -1349 0
-1309 -1350 0
-1309 -1351 0
-1309 -1352 0
-1309 -1353 0
-1309 -1354 0
-1309 -1355 0
-1309 -1356 0
-1309 -1357 0
-1309 -1358 0
-1309 -1359 0
-1309 -1360 0
-1309 -1361 0
-1309 -1362 0
-1310 -1311 0
-1310 -1312 0
-1310 -1313 0
-1310 -1314 0
-1310 -1315 0
-1310 -1316 0
-1310 -1317 0
-1310 -1318 0
-1310 -1319 0
-1310 -1320 0
-1310 -1321 0
-1310 -1322 0
-1310 -1323 0
-1310 -1324 0
-1310 -1325 0
-1310 -1326 0
-1310 -1327 0
-1310 -1328 0
-1310 -1329 0
-1310 -1330 0
-1310 -1331 0
-1310 -1332 0
-1310 -1333 0
-1310 -1334 0
-1310 -1335 0
-1310 -1336 0
-1310 -1337 0
-1310 -1338 0
-1310 -1339 0
-1310 -1340 0
-1310 -1341 0
-1310 -1342 0
-1310 -1343 0
-1310 -1344 0
-1310 -1345 0
-1310 -1346 0
-1310 -1347 0
-1310 -1348 0
-1310 -1349 0
-1310 -1350 0
-1310 -1351 0
-1310 -1352 0
-1310 -1353 0
-1310 -1354 0
-1310 -1355 0
-1310 -1356 0
-1310 -1357 0
-1310 -1358 0
-1310 -1359 0
-1310 -1360 0
-1310 -1361 0
-1310 -1362 0
-1311 -1312 0
-1311 -1313 0
-1311 -1314 0
-1311 -1315 0
-1311 -1316 0
-1311 -1317 0
-1311 -1318 0
-1311 -1319 0
-1311 -1320 0
-1311 -1321 0
-1311 -1322 0
-1311 -1323 0
-1311 -1324 0
-1311 -1325 0
-1311 -1326 0
-1311 -1327 0
-1311 -1328 0
-1311 -1329 0
-1311 -1330 0
-1311 -1331 0
-1311 -1332 0
-1311 -1333 0
-1311 -1334 0
-1311 -1335 0
-1311 -1336 0
-1311 -1337 0
-1311 -1338 0
-1311 -1339 0
-1311 -1340 0
-1311 -1341 0
-1311 -1342 0
-1311 -1343 0
-1311 -1344 0
-1311 -1345 0
-1311 -1346 0
-1311 -1347 0
-1311 -1348 0
-1311 -1349 0
-1311 -1350 0
-1311 -1351 0
-1311 -1352 0
-1311 -1353 0
-1311 -1354 0
-1311 -1355 0
-1311 -1356 0
-1311 -1357 0
-1311 -1358 0
-1311 -1359 0
-1311 -1360 0
-1311 -1361 0
-1311 -1362 0
-1312 -1313 0
-1312 -1314 0
-1312 -1315 0
-1312 -1316 0
-1312 -1317 0
-1312 -1318 0
-1312 -1319 0
-1312 -1320 0
-1312 -1321 0
-1312 -1322 0
-1312 -1323 0
-1312 -1324 0
-1312 -1325 0
-1312 -1326 0
-1312 -1327 0
-1312 -1328 0
-1312 -1329 0
-1312 -1330 0
-1312 -1331 0
-1312 -1332 0
-1312 -1333 0
-1312 -1334 0
-1312 -1335 0
-1312 -1336 0
-1312 -1337 0
-1312 -1338 0
-1312 -1339 0
-1312 -1340 0
-1312 -1341 0
-1312 -1342 0
-1312 -1343 0
-1312 -1344 0
-1312 -1345 0
-1312 -1346 0
-1312 -1347 0
-1312 -1348 0
-1312 -1349 0
-1312 -1350 0
-1312 -1351 0
-1312 -1352 0
-1312 -1353 0
-1312 -1354 0
-1312 -1355 0
-1312 -1356 0
-1312 -1357 0
-1312 -1358 0
-1312 -1359 0
-1312 -1360 0
-1312 -1361 0
-1312 -1362 0
-1313 -1314 0
-1313 -1315 0
-1313 -1316 0
-1313 -1317 0
-1313 -1318 0
-1313 -1319 0
-1313 -1320 0
-1313 -1321 0
-1313 -1322 0
-1313 -1323 0
-1313 -1324 0
-1313 -1325 0
-1313 -1326 0
-1313 -1327 0
-1313 -1328 0
-1313 -1329 0
-1313 -1330 0
-1313 -1331 0
-1313 -1332 0
-1313 -1333 0
-1313 -1334 0
-1313 -1335 0
-1313 -1336 0
-1313 -1337 0
-1313 -1338 0
-1313 -1339 0
-1313 -1340 0
-1313 -1341 0
-1313 -1342 0
-1313 -1343 0
-1313 -1344 0
-1313 -1345 0
-1313 -1346 0
-1313 -1347 0
-1313 -1348 0
-1313 -1349 0
-1313 -1350 0
-1313 -1351 0
-1313 -1352 0
-1313 -1353 0
-1313 -1354 0
-1313 -1355 0
-1313 -1356 0
-1313 -1357 0
-1313 -1358 0
-1313 -1359 0
-1313 -1360 0
-1313 -1361 0
-1313 -1362 0
-1314 -1315 0
-1314 -1316 0
-1314 -1317 0
-1314 -1318 0
-1314 -1319 0
-1314 -1320 0
-1314 -1321 0
-1314 -1322 0
-1314 -1323 0
-1314 -1324 0
-1314 -1325 0
-1314 -1326 0
-1314 -1327 0
-1314 -1328 0
-1314 -1329 0
-1314 -1330 0
-1314 -1331 0
-1314 -1332 0
-1314 -1333 0
-1314 -1334 0
-1314 -1335 0
-1314 -1336 0
-1314 -1337 0
-1314 -1338 0
-1314 -1339 0
-1314 -1340 0
-1314 -1341 0
-1314 -1342 0
-1314 -1343 0
-1314 -1344 0
-1314 -1345 0
-1314 -1346 0
-1314 -1347 0
-1314 -1348 0
-1314 -1349 0
-1314 -1350 0
-1314 -1351 0
-1314 -1352 0
-1314 -1353 0
-1314 -1354 0
-1314 -1355 0
-1314 -1356 0
-1314 -1357 0
-1314 -1358 0
-1314 -1359 0
-1314 -1360 0
-1314 -1361 0
-1314 -1362 0
-1315 -1316 0
-1315 -1317 0
-1315 -1318 0
-1315 -1319 0
-1315 -1320 0
-1315 -1321 0
-1315 -1322 0
-1315 -1323 0
-1315 -1324 0
-1315 -1325 0
-1315 -1326 0
-1315 -1327 0
-1315 -1328 0
-1315 -1329 0
-1315 -1330 0
-1315 -1331 0
-1315 -1332 0
-1315 -1333 0
-1315 -1334 0
-1315 -1335 0
-1315 -1336 0
-1315 -1337 0
-1315 -1338 0
-1315 -1339 0
-1315 -1340 0
-1315 -1341 0
-1315 -1342 0
-1315 -1343 0
-1315 -1344 0
-1315 -1345 0
-1315 -1346 0
-1315 -1347 0
-1315 -1348 0
-1315 -1349 0
-1315 -1350 0
-1315 -1351 0
-1315 -1352 0
-1315 -1353 0
-1315 -1354 0
-1315 -1355 0
-1315 -1356 0
-1315 -1357 0
-1315 -1358 0
-1315 -1359 0
-1315 -1360 0
-1315 -1361 0
-1315 -1362 0
-1316 -1317 0
-1316 -1318 0
-1316 -1319 0
-1316 -1320 0
-1316 -1321 0
-1316 -1322 0
-1316 -1323 0
-1316 -1324 0
-1316 -1325 0
-1316 -1326 0
-1316 -1327 0
-1316 -1328 0
-1316 -1329 0
-1316 -1330 0
-1316 -1331 0
-1316 -1332 0
-1316 -1333 0
-1316 -1334 0
-1316 -1335 0
-1316 -1336 0
-1316 -1337 0
-1316 -1338 0
-1316 -1339 0
-1316 -1340 0
-1316 -1341 0
-1316 -1342 0
-1316 -1343 0
-1316 -1344 0
-1316 -1345 0
-1316 -1346 0
-1316 -1347 0
-1316 -1348 0
-1316 -1349 0
-1316 -1350 0
-1316 -1351 0
-1316 -1352 0
-1316 -1353 0
-1316 -1354 0
-1316 -1355 0
-1316 -1356 0
-1316 -1357 0
-1316 -1358 0
-1316 -1359 0
-1316 -1360 0
-1316 -1361 0
-1316 -1362 0
-1317 -1318 0
-1317 -1319 0
-1317 -1320 0
-1317 -1321 0
-1317 -1322 0
-1317 -1323 0
-1317 -1324 0
-1317 -1325 0
-1317 -1326 0
-1317 -1327 0
-1317 -1328 0
-1317 -1329 0
-1317 -1330 0
-1317 -1331 0
-1317 -1332 0
-1317 -1333 0
-1317 -1334 0
-1317 -1335 0
-1317 -1336 0
-1317 -1337 0
-1317 -1338 0
-1317 -1339 0
-1317 -1340 0
-1317 -1341 0
-1317 -1342 0
-1317 -1343 0
-1317 -1344 0
-1317 -1345 0
-1317 -1346 0
-1317 -1347 0
-1317 -1348 0
-1317 -1349 0
-1317 -1350 0
-1317 -1351 0
-1317 -1352 0
-1317 -1353 0
-1317 -1354 0
-1317 -1355 0
-1317 -1356 0
-1317 -1357 0
-1317 -1358 0
-1317 -1359 0
-1317 -1360 0
-1317 -1361 0
-1317 -1362 0
-1318 -1319 0
-1318 -1320 0
-1318 -1321 0
-1318 -1322 0
-1318 -1323 0
-1318 -1324 0
-1318 -1325 0
-1318 -1326 0
-1318 -1327 0
-1318 -1328 0
-1318 -1329 0
-1318 -1330 0
-1318 -1331 0
-1318 -1332 0
-1318 -1333 0
-1318 -1334 0
-1318 -1335 0
-1318 -1336 0
-1318 -1337 0
-1318 -1338 0
-1318 -1339 0
-1318 -1340 0
-1318 -1341 0
-1318 -1342 0
-1318 -1343 0
-1318 -1344 0
-1318 -1345 0
-1318 -1346 0
-1318 -1347 0
-1318 -1348 0
-1318 -1349 0
-1318 -1350 0
-1318 -1351 0
-1318 -1352 0
-1318 -1353 0
-1318 -1354 0
-1318 -1355 0
-1318 -1356 0
-1318 -1357 0
-1318 -1358 0
-1318 -1359 0
-1318 -1360 0
-1318 -1361 0
-1318 -1362 0
-1319 -1320 0
-1319 -1321 0
-1319 -1322 0
-1319 -1323 0
-1319 -1324 0
-1319 -1325 0
-1319 -1326 0
-1319 -1327 0
-1319 -1328 0
-1319 -1329 0
-1319 -1330 0
-1319 -1331 0
-1319 -1332 0
-1319 -1333 0
-1319 -1334 0
-1319 -1335 0
-1319 -1336 0
-1319 -1337 0
-1319 -1338 0
-1319 -1339 0
-1319 -1340 0
-1319 -1341 0
-1319 -1342 0
-1319 -1343 0
-1319 -1344 0
-1319 -1345 0
-1319 -1346 0
-1319 -1347 0
-1319 -1348 0
-1319 -1349 0
-1319 -1350 0
-1319 -1351 0
-1319 -1352 0
-1319 -1353 0
-1319 -1354 0
-1319 -1355 0
-1319 -1356 0
-1319 -1357 0
-1319 -1358 0
-1319 -1359 0
-1319 -1360 0
-1319 -1361 0
-1319 -1362 0
-1320 -1321 0
-1320 -1322 0
-1320 -1323 0
-1320 -1324 0
-1320 -1325 0
-1320 -1326 0
-1320 -1327 0
-1320 -1328 0
-1320 -1329 0
-1320 -1330 0
-1320 -1331 0
-1320 -1332 0
-1320 -1333 0
-1320 -1334 0
-1320 -1335 0
-1320 -1336 0
-1320 -1337 0
-1320 -1338 0
-1320 -1339 0
-1320 -1340 0
-1320 -1341 0
-1320 -1342 0
-1320 -1343 0
-1320 -1344 0
-1320 -1345 0
-1320 -1346 0
-1320 -1347 0
-1320 -1348 0
-1320 -1349 0
-1320 -1350 0
-1320 -1351 0
-1320 -1352 0
-1320 -1353 0
-1320 -1354 0
-1320 -1355 0
-1320 -1356 0
-1320 -1357 0
-1320 -1358 0
-1320 -1359 0
-1320 -1360 0
-1320 -1361 0
-1320 -1362 0
-1321 -1322 0
-1321 -1323 0
-1321 -1324 0
-1321 -1325 0
-1321 -1326 0
-1321 -1327 0
-1321 -1328 0
-1321 -1329 0
-1321 -1330 0
-1321 -1331 0
-1321 -1332 0
-1321 -1333 0
-1321 -1334 0
-1321 -1335 0
-1321 -1336 0
-1321 -1337 0
-1321 -1338 0
-1321 -1339 0
-1321 -1340 0
-1321 -1341 0
-1321 -1342 0
-1321 -1343 0
-1321 -1344 0
-1321 -1345 0
-1321 -1346 0
-1321 -1347 0
-1321 -1348 0
-1321 -1349 0
-1321 -1350 0
-1321 -1351 0
-1321 -1352 0
-1321 -1353 0
-1321 -1354 0
-1321 -1355 0
-1321 -1356 0
-1321 -1357 0
-1321 -1358 0
-1321 -1359 0
-1321 -1360 0
-1321 -1361 0
-1321 -1362 0
-1322 -1323 0
-1322 -1324 0
-1322 -1325 0
-1322 -1326 0
-1322 -1327 0
-1322 -1328 0
-1322 -1329 0
-1322 -1330 0
-1322 -1331 0
-1322 -1332 0
-1322 -1333 0
-1322 -1334 0
-1322 -1335 0
-1322 -1336 0
-1322 -1337 0
-1322 -1338 0
-1322 -1339 0
-1322 -1340 0
-1322 -1341 0
-1322 -1342 0
-1322 -1343 0
-1322 -1344 0
-1322 -1345 0
-1322 -1346 0
-1322 -1347 0
-1322 -1348 0
-1322 -1349 0
-1322 -1350 0
-1322 -1351 0
-1322 -1352 0
-1322 -1353 0
-1322 -1354 0
-1322 -1355 0
-1322 -1356 0
-1322 -1357 0
-1322 -1358 0
-1322 -1359 0
-1322 -1360 0
-1322 -1361 0
-1322 -1362 0
-1323 -1324 0
-1323 -1325 0
-1323 -1326 0
-1323 -1327 0
-1323 -1328 0
-1323 -1329 0
-1323 -1330 0
-1323 -1331 0
-1323 -1332 0
-1323 -1333 0
-1323 -1334 0
-1323 -1335 0
-1323 -1336 0
-1323 -1337 0
-1323 -1338 0
-1323 -1339 0
-1323 -1340 0
-1323 -1341 0
-1323 -1342 0
-1323 -1343 0
-1323 -1344 0
-1323 -1345 0
-1323 -1346 0
-1323 -1347 0
-1323 -1348 0
-1323 -1349 0
-1323 -1350 0
-1323 -1351 0
-1323 -1352 0
-1323 -1353 0
-1323 -1354 0
-1323 -1355 0
-1323 -1356 0
-1323 -1357 0
-1323 -1358 0
-1323 -1359 0
-1323 -1360 0
-1323 -1361 0
-1323 -1362 0
-1324 -1325 0
-1324 -1326 0
-1324 -1327 0
-1324 -1328 0
-1324 -1329 0
-1324 -1330 0
-1324 -1331 0
-1324 -1332 0
-1324 -1333 0
-1324 -1334 0
-1324 -1335 0
-1324 -1336 0
-1324 -1337 0
-1324 -1338 0
-1324 -1339 0
-1324 -1340 0
-1324 -1341 0
-1324 -1342 0
-1324 -1343 0
-1324 -1344 0
-1324 -1345 0
-1324 -1346 0
-1324 -1347 0
-1324 -1348 0
-1324 -1349 0
-1324 -1350 0
-1324 -1351 0
-1324 -1352 0
-1324 -1353 0
-1324 -1354 0
-1324 -1355 0
-1324 -1356 0
-1324 -1357 0
-1324 -1358 0
-1324 -1359 0
-1324 -1360 0
-1324 -1361 0
-1324 -1362 0
-1325 -1326 0
-1325 -1327 0
-1325 -1328 0
-1325 -1329 0
-1325 -1330 0
-1325 -1331 0
-1325 -1332 0
-1325 -1333 0
-1325 -1334 0
-1325 -1335 0
-1325 -1336 0
-1325 -1337 0
-1325 -1338 0
-1325 -1339 0
-1325 -1340 0
-1325 -1341 0
-1325 -1342 0
-1325 -1343 0
-1325 -1344 0
-1325 -1345 0
-1325 -1346 0
-1325 -1347 0
-1325 -1348 0
-1325 -1349 0
-1325 -1350 0
-1325 -1351 0
-1325 -1352 0
-1325 -1353 0
-1325 -1354 0
-1325 -1355 0
-1325 -1356 0
-1325 -1357 0
-1325 -1358 0
-1325 -1359 0
-1325 -1360 0
-1325 -1361 0
-1325 -1362 0
-1326 -1327 0
-1326 -1328 0
-1326 -1329 0
-1326 -1330 0
-1326 -1331 0
-1326 -1332 0
-1326 -1333 0
-1326 -1334 0
-1326 -1335 0
-1326 -1336 0
-1326 -1337 0
-1326 -1338 0
-1326 -1339 0
-1326 -1340 0
-1326 -1341 0
-1326 -1342 0
-1326 -1343 0
-1326 -1344 0
-1326 -1345 0
-1326 -1346 0
-1326 -1347 0
-1326 -1348 0
-1326 -1349 0
-1326 -1350 0
-1326 -1351 0
-1326 -1352 0
-1326 -1353 0
-1326 -1354 0
-1326 -1355 0
-1326 -1356 0
-1326 -1357 0
-1326 -1358 0
-1326 -1359 0
-1326 -1360 0
-1326 -1361 0
-1326 -1362 0
-1327 -1328 0
-1327 -1329 0
-1327 -1330 0
-1327 -1331 0
-1327 -1332 0
-1327 -1333 0
-1327 -1334 0
-1327 -1335 0
-1327 -1336 0
-1327 -1337 0
-1327 -1338 0
-1327 -1339 0
-1327 -1340 0
-1327 -1341 0
-1327 -1342 0
-1327 -1343 0
-1327 -1344 0
-1327 -1345 0
-1327 -1346 0
-1327 -1347 0
-1327 -1348 0
-1327 -1349 0
-1327 -1350 0
-1327 -1351 0
-1327 -1352 0
-1327 -1353 0
-1327 -1354 0
-1327 -1355 0
-1327 -1356 0
-1327 -1357 0
-1327 -1358 0
-1327 -1359 0
-1327 -1360 0
-1327 -1361 0
-1327 -1362 0
-1328 -1329 0
-1328 -1330 0
-1328 -1331 0
-1328 -1332 0
-1328 -1333 0
-1328 -1334 0
-1328 -1335 0
-1328 -1336 0
-1328 -1337 0
-1328 -1338 0
-1328 -1339 0
-1328 -1340 0
-1328 -1341 0
-1328 -1342 0
-1328 -1343 0
-1328 -1344 0
-1328 -1345 0
-1328 -1346 0
-1328 -1347 0
-1328 -1348 0
-1328 -1349 0
-1328 -1350 0
-1328 -1351 0
-1328 -1352 0
-1328 -1353 0
-1328 -1354 0
-1328 -1355 0
-1328 -1356 0
-1328 -1357 0
-1328 -1358 0
-1328 -1359 0
-1328 -1360 0
-1328 -1361 0
-1328 -1362 0
-1329 -1330 0
-1329 -1331 0
-1329 -1332 0
-1329 -1333 0
-1329 -1334 0
-1329 -1335 0
-1329 -1336 0
-1329 -1337 0
-1329 -1338 0
-1329 -1339 0
-1329 -1340 0
-1329 -1341 0
-1329 -1342 0
-1329 -1343 0
-1329 -1344 0
-1329 -1345 0
-1329 -1346 0
-1329 -1347 0
-1329 -1348 0
-1329 -1349 0
-1329 -1350 0
-1329 -1351 0
-1329 -1352 0
-1329 -1353 0
-1329 -1354 0
-1329 -1355 0
-1329 -1356 0
-1329 -1357 0
-1329 -1358 0
-1329 -1359 0
-1329 -1360 0
-1329 -1361 0
-1329 -1362 0
-1330 -1331 0
-1330 -1332 0
-1330 -1333 0
-1330 -1334 0
-1330 -1335 0
-1330 -1336 0
-1330 -1337 0
-1330 -1338 0
-1330 -1339 0
-1330 -1340 0
-1330 -1341 0
-1330 -1342 0
-1330 -1343 0
-1330 -1344 0
-1330 -1345 0
-1330 -1346 0
-1330 -1347 0
-1330 -1348 0
-1330 -1349 0
-1330 -1350 0
-1330 -1351 0
-1330 -1352 0
-1330 -1353 0
-1330 -1354 0
-1330 -1355 0
-1330 -1356 0
-1330 -1357 0
-1330 -1358 0
-1330 -1359 0
-1330 -1360 0
-1330 -1361 0
-1330 -1362 0
-1331 -1332 0
-1331 -1333 0
-1331 -1334 0
-1331 -1335 0
-1331 -1336 0
-1331 -1337 0
-1331 -1338 0
-1331 -1339 0
-1331 -1340 0
-1331 -1341 0
-1331 -1342 0
-1331 -1343 0
-1331 -1344 0
-1331 -1345 0
-1331 -1346 0
-1331 -1347 0
-1331 -1348 0
-1331 -1349 0
-1331 -1350 0
-1331 -1351 0
-1331 -1352 0
-1331 -1353 0
-1331 -1354 0
-1331 -1355 0
-1331 -1356 0
-1331 -1357 0
-1331 -1358 0
-1331 -1359 0
-1331 -1360 0
-1331 -1361 0
-1331 -1362 0
-1332 -1333 0
-1332 -1334 0
-1332 -1335 0
-1332 -1336 0
-1332 -1337 0
-1332 -1338 0
-1332 -1339 0
-1332 -1340 0
-1332 -1341 0
-1332 -1342 0
-1332 -1343 0
-1332 -1344 0
-1332 -1345 0
-1332 -1346 0
-1332 -1347 0
-1332 -1348 0
-1332 -1349 0
-1332 -1350 0
-1332 -1351 0
-1332 -1352 0
-1332 -1353 0
-1332 -1354 0
-1332 -1355 0
-1332 -1356 0
-1332 -1357 0
-1332 -1358 0
-1332 -1359 0
-1332 -1360 0
-1332 -1361 0
-1332 -1362 0
-1333 -1334 0
-1333 -1335 0
-1333 -1336 0
-1333 -1337 0
-1333 -1338 0
-1333 -1339 0
-1333 -1340 0
-1333 -1341 0
-1333 -1342 0
-1333 -1343 0
-1333 -1344 0
-1333 -1345 0
-1333 -1346 0
-1333 -1347 0
-1333 -1348 0
-1333 -1349 0
-1333 -1350 0
-1333 -1351 0
-1333 -1352 0
-1333 -1353 0
-1333 -1354 0
-1333 -1355 0
-1333 -1356 0
-1333 -1357 0
-1333 -1358 0
-1333 -1359 0
-1333 -1360 0
-1333 -1361 0
-1333 -1362 0
-1334 -1335 0
-1334 -1336 0
-1334 -1337 0
-1334 -1338 0
-1334 -1339 0
-1334 -1340 0
-1334 -1341 0
-1334 -1342 0
-1334 -1343 0
-1334 -1344 0
-1334 -1345 0
-1334 -1346 0
-1334 -1347 0
-1334 -1348 0
-1334 -1349 0
-1334 -1350 0
-1334 -1351 0
-1334 -1352 0
-1334 -1353 0
-1334 -1354 0
-1334 -1355 0
-1334 -1356 0
-1334 -1357 0
-1334 -1358 0
-1334 -1359 0
-1334 -1360 0
-1334 -1361 0
-1334 -1362 0
-1335 -1336 0
-1335 -1337 0
-1335 -1338 0
-1335 -1339 0
-1335 -1340 0
-1335 -1341 0
-1335 -1342 0
-1335 -1343 0
-1335 -1344 0
-1335 -1345 0
-1335 -1346 0
-1335 -1347 0
-1335 -1348 0
-1335 -1349 0
-1335 -1350 0
-1335 -1351 0
-1335 -1352 0
-1335 -1353 0
-1335 -1354 0
-1335 -1355 0
-1335 -1356 0
-1335 -1357 0
-1335 -1358 0
-1335 -1359 0
-1335 -1360 0
-1335 -1361 0
-1335 -1362 0
-1336 -1337 0
-1336 -1338 0
-1336 -1339 0
-1336 -1340 0
-1336 -1341 0
-1336 -1342 0
-1336 -1343 0
-1336 -1344 0
-1336 -1345 0
-1336 -1346 0
-1336 -1347 0
-1336 -1348 0
-1336 -1349 0
-1336 -1350 0
-1336 -1351 0
-1336 -1352 0
-1336 -1353 0
-1336 -1354 0
-1336 -1355 0
-1336 -1356 0
-1336 -1357 0
-1336 -1358 0
-1336 -1359 0
-1336 -1360 0
-1336 -1361 0
-1336 -1362 0
-1337 -1338 0
-1337 -1339 0
-1337 -1340 0
-1337 -1341 0
-1337 -1342 0
-1337 -1343 0
-1337 -1344 0
-1337 -1345 0
-1337 -1346 0
-1337 -1347 0
-1337 -1348 0
-1337 -1349 0
-1337 -1350 0
-1337 -1351 0
-1337 -1352 0
-1337 -1353 0
-1337 -1354 0
-1337 -1355 0
-1337 -1356 0
-1337 -1357 0
-1337 -1358 0
-1337 -1359 0
-1337 -1360 0
-1337 -1361 0
-1337 -1362 0
-1338 -1339 0
-1338 -1340 0
-1338 -1341 0
-1338 -1342 0
-1338 -1343 0
-1338 -1344 0
-1338 -1345 0
-1338 -1346 0
-1338 -1347 0
-1338 -1348 0
-1338 -1349 0
-1338 -1350 0
-1338 -1351 0
-1338 -1352 0
-1338 -1353 0
-1338 -1354 0
-1338 -1355 0
-1338 -1356 0
-1338 -1357 0
-1338 -1358 0
-1338 -1359 0
-1338 -1360 0
-1338 -1361 0
-1338 -1362 0
-1339 -1340 0
-1339 -1341 0
-1339 -1342 0
-1339 -1343 0
-1339 -1344 0
-1339 -1345 0
-1339 -1346 0
-1339 -1347 0
-1339 -1348 0
-1339 -1349 0
-1339 -1350 0
-1339 -1351 0
-1339 -1352 0
-1339 -1353 0
-1339 -1354 0
-1339 -1355 0
-1339 -1356 0
-1339 -1357 0
-1339 -1358 0
-1339 -1359 0
-1339 -1360 0
-1339 -1361 0
-1339 -1362 0
-1340 -1341 0
-1340 -1342 0
-1340 -1343 0
-1340 -1344 0
-1340 -1345 0
-1340 -1346 0
-1340 -1347 0
-1340 -1348 0
-1340 -1349 0
-1340 -1350 0
-1340 -1351 0
-1340 -1352 0
-1340 -1353 0
-1340 -1354 0
-1340 -1355 0
-1340 -1356 0
-1340 -1357 0
-1340 -1358 0
-1340 -1359 0
-1340 -1360 0
-1340 -1361 0
-1340 -1362 0
-1341 -1342 0
-1341 -1343 0
-1341 -1344 0
-1341 -1345 0
-1341 -1346 0
-1341 -1347 0
-1341 -1348 0
-1341 -1349 0
-1341 -1350 0
-1341 -1351 0
-1341 -1352 0
-1341 -1353 0
-1341 -1354 0
-1341 -1355 0
-1341 -1356 0
-1341 -1357 0
-1341 -1358 0
-1341 -1359 0
-1341 -1360 0
-1341 -1361 0
-1341 -1362 0
-1342 -1343 0
-1342 -1344 0
-1342 -1345 0
-1342 -1346 0
-1342 -1347 0
-1342 -1348 0
-1342 -1349 0
-1342 -1350 0
-1342 -1351 0
-1342 -1352 0
-1342 -1353 0
-1342 -1354 0
-1342 -1355 0
-1342 -1356 0
-1342 -1357 0
-1342 -1358 0
-1342 -1359 0
-1342 -1360 0
-1342 -1361 0
-1342 -1362 0
-1343 -1344 0
-1343 -1345 0
-1343 -1346 0
-1343 -1347 0
-1343 -1348 0
-1343 -1349 0
-1343 -1350 0
-1343 -1351 0
-1343 -1352 0
-1343 -1353 0
-1343 -1354 0
-1343 -1355 0
-1343 -1356 0
-1343 -1357 0
-1343 -1358 0
-1343 -1359 0
-1343 -1360 0
-1343 -1361 0
-1343 -1362 0
-1344 -1345 0
-1344 -1346 0
-1344 -1347 0
-1344 -1348 0
-1344 -1349 0
-1344 -1350 0
-1344 -1351 0
-1344 -1352 0
-1344 -1353 0
-1344 -1354 0
-1344 -1355 0
-1344 -1356 0
-1344 -1357 0
-1344 -1358 0
-1344 -1359 0
-1344 -1360 0
-1344 -1361 0
-1344 -1362 0
-1345 -1346 0
-1345 -1347 0
-1345 -1348 0
-1345 -1349 0
-1345 -1350 0
-1345 -1351 0
-1345 -1352 0
-1345 -1353 0
-1345 -1354 0
-1345 -1355 0
-1345 -1356 0
-1345 -1357 0
-1345 -1358 0
-1345 -1359 0
-1345 -1360 0
-1345 -1361 0
-1345 -1362 0
-1346 -1347 0
-1346 -1348 0
-1346 -1349 0
-1346 -1350 0
-1346 -1351 0
-1346 -1352 0
-1346 -1353 0
-1346 -1354 0
-1346 -1355 0
-1346 -1356 0
-1346 -1357 0
-1346 -1358 0
-1346 -1359 0
-1346 -1360 0
-1346 -1361 0
-1346 -1362 0
-1347 -1348 0
-1347 -1349 0
-1347 -1350 0
-1347 -1351 0
-1347 -1352 0
-1347 -1353 0
-1347 -1354 0
-1347 -1355 0
-1347 -1356 0
-1347 -1357 0
-1347 -1358 0
-1347 -1359 0
-1347 -1360 0
-1347 -1361 0
-1347 -1362 0
-1348 -1349 0
-1348 -1350 0
-1348 -1351 0
-1348 -1352 0
-1348 -1353 0
-1348 -1354 0
-1348 -1355 0
-1348 -1356 0
-1348 -1357 0
-1348 -1358 0
-1348 -1359 0
-1348 -1360 0
-1348 -1361 0
-1348 -1362 0
-1349 -1350 0
-1349 -1351 0
-1349 -1352 0
-1349 -1353 0
-1349 -1354 0
-1349 -1355 0
-1349 -1356 0
-1349 -1357 0
-1349 -1358 0
-1349 -1359 0
-1349 -1360 0
-1349 -1361 0
-1349 -1362 0
-1350 -1351 0
-1350 -1352 0
-1350 -1353 0
-1350 -1354 0
-1350 -1355 0
-1350 -1356 0
-1350 -1357 0
-1350 -1358 0
-1350 -1359 0
-1350 -1360 0
-1350 -1361 0
-1350 -1362 0
-1351 -1352 0
-1351 -1353 0
-1351 -1354 0
-1351 -1355 0
-1351 -1356 0
-1351 -1357 0
-1351 -1358 0
-1351 -1359 0
-1351 -1360 0
-1351 -1361 0
-1351 -1362 0
-1352 -1353 0
-1352 -1354 0
-1352 -1355 0
-1352 -1356 0
-1352 -1357 0
-1352 -1358 0
-1352 -1359 0
-1352 -1360 0
-1352 -1361 0
-1352 -1362 0
-1353 -1354 0
-1353 -1355 0
-1353 -1356 0
-1353 -1357 0
-1353 -1358 0
-1353 -1359 0
-1353 -1360 0
-1353 -1361 0
-1353 -1362 0
-1354 -1355 0
-1354 -1356 0
-1354 -1357 0
-1354 -1358 0
-1354 -1359 0
-1354 -1360 0
-1354 -1361 0
-1354 -1362 0
-1355 -1356 0
-1355 -1357 0
-1355 -1358 0
-1355 -1359 0
-1355 -1360 0
-1355 -1361 0
-1355 -1362 0
-1356 -1357 0
-1356 -1358 0
-1356 -1359 0
-1356 -1360 0
-1356 -1361 0
-1356 -1362 0
-1357 -1358 0
-1357 -1359 0
-1357 -1360 0
-1357 -1361 0
-1357 -1362 0
-1358 -1359 0
-1358 -1360 0
-1358 -1361 0
-1358 -1362 0
-1359 -1360 0
-1359 -1361 0
-1359 -1362 0
-1360 -1361 0
-1360 -1362 0
-1361 -1362 0
-1279 408 0
-1279 556 0
-1279 -378 0
-1279 -379 0
-1279 -380 0
-1279 -381 0
-1279 -382 0
-1279 -396 578 0
-1279 -396 -461 0
-1279 -396 -485 0
-1279 -396 -509 0
-1279 -396 -371 -393 0
-1279 -397 579 0
-1279 -397 -462 0
-1279 -397 -486 0
-1279 -397 -510 0
-1279 -397 -371 -394 0
-1279 -398 580 0
-1279 -398 -463 0
-1279 -398 -487 0
-1279 -398 -511 0
-1279 -398 -371 -395 0
-1279 -399 0
-1280 408 0
-1280 557 0
-1280 -377 0
-1280 -379 0
-1280 -380 0
-1280 -381 0
-1280 -382 0
-1280 -396 578 0
-1280 -396 -465 0
-1280 -396 -489 0
-1280 -396 -513 0
-1280 -396 -372 -393 0
-1280 -397 579 0
-1280 -397 -466 0
-1280 -397 -490 0
-1280 -397 -514 0
-1280 -397 -372 -394 0
-1280 -398 580 0
-1280 -398 -467 0
-1280 -398 -491 0
-1280 -398 -515 0
-1280 -398 -372 -395 0
-1280 -399 0
-1281 408 0
-1281 558 0
-1281 -377 0
-1281 -378 0
-1281 -380 0
-1281 -381 0
-1281 -382 0
-1281 -396 578 0
-1281 -396 -469 0
-1281 -396 -493 0
-1281 -396 -517 0
-1281 -396 -373 -393 0
-1281 -397 579 0
-1281 -397 -470 0
-1281 -397 -494 0
-1281 -397 -518 0
-1281 -397 -373 -394 0
-1281 -398 580 0
-1281 -398 -471 0
-1281 -398 -495 0
-1281 -398 -519 0
-1281 -398 -373 -395 0
-1281 -399 0
-1282 408 0
-1282 559 0
-1282 -377 0
-1282 -378 0
-1282 -379 0
-1282 -381 0
-1282 -382 0
-1282 -396 578 0
-1282 -396 -473 0
-1282 -396 -497 0
-1282 -396 -521 0
-1282 -396 -374 -393 0
-1282 -397 579 0
-1282 -397 -474 0
-1282 -397 -498 0
-1282 -397 -522 0
-1282 -397 -374 -394 0
-1282 -398 580 0
-1282 -398 -475 0
-1282 -398 -499 0
-1282 -398 -523 0
-1282 -398 -374 -395 0
-1282 -399 0
-1283 408 0
-1283 560 0
-1283 -377 0
-1283 -378 0
-1283 -379 0
-1283 -380 0
-1283 -382 0
-1283 -396 578 0
-1283 -396 -477 0
-1283 -396 -501 0
-1283 -396 -525 0
-1283 -396 -375 -393 0
-1283 -397 579 0
-1283 -397 -478 0
-1283 -397 -502 0
-1283 -397 -526 0
-1283 -397 -375 -394 0
-1283 -398 580 0
-1283 -398 -479 0
-1283 -398 -503 0
-1283 -398 -527 0
-1283 -398 -375 -395 0
-1283 -399 0
-1284 408 0
-1284 561 0
-1284 -377 0
-1284 -378 0
-1284 -379 0
-1284 -380 0
-1284 -381 0
-1284 -396 578 0
-1284 -396 -481 0
-1284 -396 -505 0
-1284 -396 -529 0
-1284 -396 -376 -393 0
-1284 -397 579 0
-1284 -397 -482 0
-1284 -397 -506 0
-1284 -397 -530 0
-1284 -397 -376 -394 0
-1284 -398 580 0
-1284 -398 -483 0
-1284 -398 -507 0
-1284 -398 -531 0
-1284 -398 -376 -395 0
-1284 -399 0
-1285 408 0
-1285 556 0
-1285 -384 0
-1285 -385 0
-1285 -386 0
-1285 -387 0
-1285 -400 578 0
-1285 -400 -461 0
-1285 -400 -485 0
-1285 -400 -509 0
-1285 -400 -371 -393 0
-1285 -401 579 0
-1285 -401 -462 0
-1285 -401 -486 0
-1285 -401 -510 0
-1285 -401 -371 -394 0
-1285 -402 580 0
-1285 -402 -463 0
-1285 -402 -487 0
-1285 -402 -511 0
-1285 -402 -371 -395 0
-1285 -403 0
-1286 408 0
-1286 557 0
-1286 -385 0
-1286 -386 0
-1286 -387 0
-1286 -400 578 0
-1286 -400 -465 0
-1286 -400 -489 0
-1286 -400 -513 0
-1286 -400 -372 -393 0
-1286 -401 579 0
-1286 -401 -466 0
-1286 -401 -490 0
-1286 -401 -514 0
-1286 -401 -372 -394 0
-1286 -402 580 0
-1286 -402 -467 0
-1286 -402 -491 0
-1286 -402 -515 0
-1286 -402 -372 -395 0
-1286 -403 0
-1287 408 0
-1287 558 0
-1287 -383 0
-1287 -386 0
-1287 -387 0
-1287 -400 578 0
-1287 -400 -469 0
-1287 -400 -493 0
-1287 -400 -517 0
-1287 -400 -373 -393 0
-1287 -401 579 0
-1287 -401 -470 0
-1287 -401 -494 0
-1287 -401 -518 0
-1287 -401 -373 -394 0
-1287 -402 580 0
-1287 -402 -471 0
-1287 -402 -495 0
-1287 -402 -519 0
-1287 -402 -373 -395 0
-1287 -403 0
-1288 408 0
-1288 559 0
-1288 -383 0
-1288 -384 0
-1288 -387 0
-1288 -400 578 0
-1288 -400 -473 0
-1288 -400 -497 0
-1288 -400 -521 0
-1288 -400 -374 -393 0
-1288 -401 579 0
-1288 -401 -474 0
-1288 -401 -498 0
-1288 -401 -522 0
-1288 -401 -374 -394 0
-1288 -402 580 0
-1288 -402 -475 0
-1288 -402 -499 0
-1288 -402 -523 0
-1288 -402 -374 -395 0
-1288 -403 0
-1289 408 0
-1289 560 0
-1289 -383 0
-1289 -384 0
-1289 -385 0
-1289 -400 578 0
-1289 -400 -477 0
-1289 -400 -501 0
-1289 -400 -525 0
-1289 -400 -375 -393 0
-1289 -401 579 0
-1289 -401 -478 0
-1289 -401 -502 0
-1289 -401 -526 0
-1289 -401 -375 -394 0
-1289 -402 580 0
-1289 -402 -479 0
-1289 -402 -503 0
-1289 -402 -527 0
-1289 -402 -375 -395 0
-1289 -403 0
-1290 408 0
-1290 561 0
-1290 -383 0
-1290 -384 0
-1290 -385 0
-1290 -386 0
-1290 -400 578 0
-1290 -400 -481 0
-1290 -400 -505 0
-1290 -400 -529 0
-1290 -400 -376 -393 0
-1290 -401 579 0
-1290 -401 -482 0
-1290 -401 -506 0
-1290 -401 -530 0
-1290 -401 -376 -394 0
-1290 -402 580 0
-1290 -402 -483 0
-1290 -402 -507 0
-1290 -402 -531 0
-1290 -402 -376 -395 0
-1290 -403 0
-1291 408 0
-1291 556 0
-1291 -389 0
-1291 -390 0
-1291 -391 0
-1291 -404 578 0
-1291 -404 -461 0
-1291 -404 -485 0
-1291 -404 -509 0
-1291 -404 -371 -393 0
-1291 -405 579 0
-1291 -405 -462 0
-1291 -405 -486 0
-1291 -405 -510 0
-1291 -405 -371 -394 0
-1291 -406 580 0
-1291 -406 -463 0
-1291 -406 -487 0
-1291 -406 -511 0
-1291 -406 -371 -395 0
-1291 -407 0
-1292 408 0
-1292 557 0
-1292 -390 0
-1292 -391 0
-1292 -404 578 0
-1292 -404 -465 0
-1292 -404 -489 0
-1292 -404 -513 0
-1292 -404 -372 -393 0
-1292 -405 579 0
-1292 -405 -466 0
-1292 -405 -490 0
-1292 -405 -514 0
-1292 -405 -372 -394 0
-1292 -406 580 0
-1292 -406 -467 0
-1292 -406 -491 0
-1292 -406 -515 0
-1292 -406 -372 -395 0
-1292 -407 0
-1293 408 0
-1293 558 0
-1293 -391 0
-1293 -404 578 0
-1293 -404 -469 0
-1293 -404 -493 0
-1293 -404 -517 0
-1293 -404 -373 -393 0
-1293 -405 579 0
-1293 -405 -470 0
-1293 -405 -494 0
-1293 -405 -518 0
-1293 -405 -373 -394 0
-1293 -406 580 0
-1293 -406 -471 0
-1293 -406 -495 0
-1293 -406 -519 0
-1293 -406 -373 -395 0
-1293 -407 0
-1294 408 0
-1294 559 0
-1294 -388 0
-1294 -404 578 0
-1294 -404 -473 0
-1294 -404 -497 0
-1294 -404 -521 0
-1294 -404 -374 -393 0
-1294 -405 579 0
-1294 -405 -474 0
-1294 -405 -498 0
-1294 -405 -522 0
-1294 -405 -374 -394 0
-1294 -406 580 0
-1294 -406 -475 0
-1294 -406 -499 0
-1294 -406 -523 0
-1294 -406 -374 -395 0
-1294 -407 0
-1295 408 0
-1295 560 0
-1295 -388 0
-1295 -389 0
-1295 -404 578 0
-1295 -404 -477 0
-1295 -404 -501 0
-1295 -404 -525 0
-1295 -404 -375 -393 0
-1295 -405 579 0
-1295 -405 -478 0
-1295 -405 -502 0
-1295 -405 -526 0
-1295 -405 -375 -394 0
-1295 -406 580 0
-1295 -406 -479 0
-1295 -406 -503 0
-1295 -406 -527 0
-1295 -406 -375 -395 0
-1295 -407 0
-1296 408 0
-1296 561 0
-1296 -388 0
-1296 -389 0
-1296 -390 0
-1296 -404 578 0
-1296 -404 -481 0
-1296 -404 -505 0
-1296 -404 -529 0
-1296 -404 -376 -393 0
-1296 -405 579 0
-1296 -405 -482 0
-1296 -405 -506 0
-1296 -405 -530 0
-1296 -405 -376 -394 0
-1296 -406 580 0
-1296 -406 -483 0
-1296 -406 -507 0
-1296 -406 -531 0
-1296 -406 -376 -395 0
-1296 -407 0
-1297 408 0
-1297 556 0
-1297 577 0
-1297 -460 0
-1297 -484 0
-1297 -508 0
-1297 -371 -392 0
-1298 408 0
-1298 557 0
-1298 577 0
-1298 -464 0
-1298 -488 0
-1298 -512 0
-1298 -372 -392 0
-1299 408 0
-1299 558 0
-1299 577 0
-1299 -468 0
-1299 -492 0
-1299 -516 0
-1299 -373 -392 0
-1300 408 0
-1300 559 0
-1300 577 0
-1300 -472 0
-1300 -496 0
-1300 -520 0
-1300 -374 -392 0
-1301 408 0
-1301 560 0
-1301 577 0
-1301 -476 0
-1301 -500 0
-1301 -524 0
-1301 -375 -392 0
-1302 408 0
-1302 561 0
-1302 577 0
-1302 -480 0
-1302 -504 0
-1302 -528 0
-1302 -376 -392 0
-1303 409 0
-1303 562 0
-1303 -372 0
-1303 -373 0
-1303 -374 0
-1303 -375 0
-1303 -376 0
-1303 -392 582 0
-1303 -392 -437 0
-1303 -392 -485 0
-1303 -392 -509 0
-1303 -392 -377 -397 0
-1303 -393 583 0
-1303 -393 -438 0
-1303 -393 -486 0
-1303 -393 -510 0
-1303 -393 -377 -398 0
-1303 -394 584 0
-1303 -394 -439 0
-1303 -394 -487 0
-1303 -394 -511 0
-1303 -394 -377 -399 0
-1303 -395 0
-1304 409 0
-1304 563 0
-1304 -371 0
-1304 -373 0
-1304 -374 0
-1304 -375 0
-1304 -376 0
-1304 -392 582 0
-1304 -392 -441 0
-1304 -392 -489 0
-1304 -392 -513 0
-1304 -392 -378 -397 0
-1304 -393 583 0
-1304 -393 -442 0
-1304 -393 -490 0
-1304 -393 -514 0
-1304 -393 -378 -398 0
-1304 -394 584 0
-1304 -394 -443 0
-1304 -394 -491 0
-1304 -394 -515 0
-1304 -394 -378 -399 0
-1304 -395 0
-1305 409 0
-1305 564 0
-1305 -371 0
-1305 -372 0
-1305 -374 0
-1305 -375 0
-1305 -376 0
-1305 -392 582 0
-1305 -392 -445 0
-1305 -392 -493 0
-1305 -392 -517 0
-1305 -392 -379 -397 0
-1305 -393 583 0
-1305 -393 -446 0
-1305 -393 -494 0
-1305 -393 -518 0
-1305 -393 -379 -398 0
-1305 -394 584 0
-1305 -394 -447 0
-1305 -394 -495 0
-1305 -394 -519 0
-1305 -394 -379 -399 0
-1305 -395 0
-1306 409 0
-1306 565 0
-1306 -371 0
-1306 -372 0
-1306 -373 0
-1306 -375 0
-1306 -376 0
-1306 -392 582 0
-1306 -392 -449 0
-1306 -392 -497 0
-1306 -392 -521 0
-1306 -392 -380 -397 0
-1306 -393 583 0
-1306 -393 -450 0
-1306 -393 -498 0
-1306 -393 -522 0
-1306 -393 -380 -398 0
-1306 -394 584 0
-1306 -394 -451 0
-1306 -394 -499 0
-1306 -394 -523 0
-1306 -394 -380 -399 0
-1306 -395 0
-1307 409 0
-1307 566 0
-1307 -371 0
-1307 -372 0
-1307 -373 0
-1307 -374 0
-1307 -376 0
-1307 -392 582 0
-1307 -392 -453 0
-1307 -392 -501 0
-1307 -392 -525 0
-1307 -392 -381 -397 0
-1307 -393 583 0
-1307 -393 -454 0
-1307 -393 -502 0
-1307 -393 -526 0
-1307 -393 -381 -398 0
-1307 -394 584 0
-1307 -394 -455 0
-1307 -394 -503 0
-1307 -394 -527 0
-1307 -394 -381 -399 0
-1307 -395 0
-1308 409 0
-1308 567 0
-1308 -371 0
-1308 -372 0
-1308 -373 0
-1308 -374 0
-1308 -375 0
-1308 -392 582 0
-1308 -392 -457 0
-1308 -392 -505 0
-1308 -392 -529 0
-1308 -392 -382 -397 0
-1308 -393 583 0
-1308 -393 -458 0
-1308 -393 -506 0
-1308 -393 -530 0
-1308 -393 -382 -398 0
-1308 -394 584 0
-1308 -394 -459 0
-1308 -394 -507 0
-1308 -394 -531 0
-1308 -394 -382 -399 0
-1308 -395 0
-1309 409 0
-1309 562 0
-1309 -384 0
-1309 -385 0
-1309 -386 0
-1309 -387 0
-1309 -400 582 0
-1309 -400 -437 0
-1309 -400 -485 0
-1309 -400 -509 0
-1309 -400 -377 -397 0
-1309 -401 583 0
-1309 -401 -438 0
-1309 -401 -486 0
-1309 -401 -510 0
-1309 -401 -377 -398 0
-1309 -402 584 0
-1309 -402 -439 0
-1309 -402 -487 0
-1309 -402 -511 0
-1309 -402 -377 -399 0
-1309 -403 0
-1310 409 0
-1310 563 0
-1310 -385 0
-1310 -386 0
-1310 -387 0
-1310 -400 582 0
-1310 -400 -441 0
-1310 -400 -489 0
-1310 -400 -513 0
-1310 -400 -378 -397 0
-1310 -401 583 0
-1310 -401 -442 0
-1310 -401 -490 0
-1310 -401 -514 0
-1310 -401 -378 -398 0
-1310 -402 584 0
-1310 -402 -443 0
-1310 -402 -491 0
-1310 -402 -515 0
-1310 -402 -378 -399 0
-1310 -403 0
-1311 409 0
-1311 564 0
-1311 -383 0
-1311 -386 0
-1311 -387 0
-1311 -400 582 0
-1311 -400 -445 0
-1311 -400 -493 0
-1311 -400 -517 0
-1311 -400 -379 -397 0
-1311 -401 583 0
-1311 -401 -446 0
-1311 -401 -494 0
-1311 -401 -518 0
-1311 -401 -379 -398 0
-1311 -402 584 0
-1311 -402 -447 0
-1311 -402 -495 0
-1311 -402 -519 0
-1311 -402 -379 -399 0
-1311 -403 0
-1312 409 0
-1312 565 0
-1312 -383 0
-1312 -384 0
-1312 -387 0
-1312 -400 582 0
-1312 -400 -449 0
-1312 -400 -497 0
-1312 -400 -521 0
-1312 -400 -380 -397 0
-1312 -401 583 0
-1312 -401 -450 0
-1312 -401 -498 0
-1312 -401 -522 0
-1312 -401 -380 -398 0
-1312 -402 584 0
-1312 -402 -451 0
-1312 -402 -499 0
-1312 -402 -523 0
-1312 -402 -380 -399 0
-1312 -403 0
-1313 409 0
-1313 566 0
-1313 -383 0
-1313 -384 0
-1313 -385 0
-1313 -400 582 0
-1313 -400 -453 0
-1313 -400 -501 0
-1313 -400 -525 0
-1313 -400 -381 -397 0
-1313 -401 583 0
-1313 -401 -454 0
-1313 -401 -502 0
-1313 -401 -526 0
-1313 -401 -381 -398 0
-1313 -402 584 0
-1313 -402 -455 0
-1313 -402 -503 0
-1313 -402 -527 0
-1313 -402 -381 -399 0
-1313 -403 0
-1314 409 0
-1314 567 0
-1314 -383 0
-1314 -384 0
-1314 -385 0
-1314 -386 0
-1314 -400 582 0
-1314 -400 -457 0
-1314 -400 -505 0
-1314 -400 -529 0
-1314 -400 -382 -397 0
-1314 -401 583 0
-1314 -401 -458 0
-1314 -401 -506 0
-1314 -401 -530 0
-1314 -401 -382 -398 0
-1314 -402 584 0
-1314 -402 -459 0
-1314 -402 -507 0
-1314 -402 -531 0
-1314 -402 -382 -399 0
-1314 -403 0
-1315 409 0
-1315 562 0
-1315 -389 0
-1315 -390 0
-1315 -391 0
-1315 -404 582 0
-1315 -404 -437 0
-1315 -404 -485 0
-1315 -404 -509 0
-1315 -404 -377 -397 0
-1315 -405 583 0
-1315 -405 -438 0
-1315 -405 -486 0
-1315 -405 -510 0
-1315 -405 -377 -398 0
-1315 -406 584 0
-1315 -406 -439 0
-1315 -406 -487 0
-1315 -406 -511 0
-1315 -406 -377 -399 0
-1315 -407 0
-1316 409 0
-1316 563 0
-1316 -390 0
-1316 -391 0
-1316 -404 582 0
-1316 -404 -441 0
-1316 -404 -489 0
-1316 -404 -513 0
-1316 -404 -378 -397 0
-1316 -405 583 0
-1316 -405 -442 0
-1316 -405 -490 0
-1316 -405 -514 0
-1316 -405 -378 -398 0
-1316 -406 584 0
-1316 -406 -443 0
-1316 -406 -491 0
-1316 -406 -515 0
-1316 -406 -378 -399 0
-1316 -407 0
-1317 409 0
-1317 564 0
-1317 -391 0
-1317 -404 582 0
-1317 -404 -445 0
-1317 -404 -493 0
-1317 -404 -517 0
-1317 -404 -379 -397 0
-1317 -405 583 0
-1317 -405 -446 0
-1317 -405 -494 0
-1317 -405 -518 0
-1317 -405 -379 -398 0
-1317 -406 584 0
-1317 -406 -447 0
-1317 -406 -495 0
-1317 -406 -519 0
-1317 -406 -379 -399 0
-1317 -407 0
-1318 409 0
-1318 565 0
-1318 -388 0
-1318 -404 582 0
-1318 -404 -449 0
-1318 -404 -497 0
-1318 -404 -521 0
-1318 -404 -380 -397 0
-1318 -405 583 0
-1318 -405 -450 0
-1318 -405 -498 0
-1318 -405 -522 0
-1318 -405 -380 -398 0
-1318 -406 584 0
-1318 -406 -451 0
-1318 -406 -499 0
-1318 -406 -523 0
-1318 -406 -380 -399 0
-1318 -407 0
-1319 409 0
-1319 566 0
-1319 -388 0
-1319 -389 0
-1319 -404 582 0
-1319 -404 -453 0
-1319 -404 -501 0
-1319 -404 -525 0
-1319 -404 -381 -397 0
-1319 -405 583 0
-1319 -405 -454 0
-1319 -405 -502 0
-1319 -405 -526 0
-1319 -405 -381 -398 0
-1319 -406 584 0
-1319 -406 -455 0
-1319 -406 -503 0
-1319 -406 -527 0
-1319 -406 -381 -399 0
-1319 -407 0
-1320 409 0
-1320 567 0
-1320 -388 0
-1320 -389 0
-1320 -390 0
-1320 -404 582 0
-1320 -404 -457 0
-1320 -404 -505 0
-1320 -404 -529 0
-1320 -404 -382 -397 0
-1320 -405 583 0
-1320 -405 -458 0
-1320 -405 -506 0
-1320 -405 -530 0
-1320 -405 -382 -398 0
-1320 -406 584 0
-1320 -406 -459 0
-1320 -406 -507 0
-1320 -406 -531 0
-1320 -406 -382 -399 0
-1320 -407 0
-1321 409 0
-1321 562 0
-1321 581 0
-1321 -436 0
-1321 -484 0
-1321 -508 0
-1321 -377 -396 0
-1322 409 0
-1322 563 0
-1322 581 0
-1322 -440 0
-1322 -488 0
-1322 -512 0
-1322 -378 -396 0
-1323 409 0
-1323 564 0
-1323 581 0
-1323 -444 0
-1323 -492 0
-1323 -516 0
-1323 -379 -396 0
-1324 409 0
-1324 565 0
-1324 581 0
-1324 -448 0
-1324 -496 0
-1324 -520 0
-1324 -380 -396 0
-1325 409 0
-1325 566 0
-1325 581 0
-1325 -452 0
-1325 -500 0
-1325 -524 0
-1325 -381 -396 0
-1326 409 0
-1326 567 0
-1326 581 0
-1326 -456 0
-1326 -504 0
-1326 -528 0
-1326 -382 -396 0
-1327 410 0
-1327 568 0
-1327 -373 0
-1327 -374 0
-1327 -375 0
-1327 -376 0
-1327 -392 586 0
-1327 -392 -437 0
-1327 -392 -441 0
-1327 -392 -461 0
-1327 -392 -465 0
-1327 -392 -509 0
-1327 -392 -513 0
-1327 -392 -383 -401 0
-1327 -393 587 0
-1327 -393 -438 0
-1327 -393 -442 0
-1327 -393 -462 0
-1327 -393 -466 0
-1327 -393 -510 0
-1327 -393 -514 0
-1327 -393 -383 -402 0
-1327 -394 588 0
-1327 -394 -439 0
-1327 -394 -443 0
-1327 -394 -463 0
-1327 -394 -467 0
-1327 -394 -511 0
-1327 -394 -515 0
-1327 -394 -383 -403 0
-1327 -395 0
-1328 410 0
-1328 569 0
-1328 -371 0
-1328 -374 0
-1328 -375 0
-1328 -376 0
-1328 -392 586 0
-1328 -392 -441 0
-1328 -392 -445 0
-1328 -392 -465 0
-1328 -392 -469 0
-1328 -392 -513 0
-1328 -392 -517 0
-1328 -392 -384 -401 0
-1328 -393 587 0
-1328 -393 -442 0
-1328 -393 -446 0
-1328 -393 -466 0
-1328 -393 -470 0
-1328 -393 -514 0
-1328 -393 -518 0
-1328 -393 -384 -402 0
-1328 -394 588 0
-1328 -394 -443 0
-1328 -394 -447 0
-1328 -394 -467 0
-1328 -394 -471 0
-1328 -394 -515 0
-1328 -394 -519 0
-1328 -394 -384 -403 0
-1328 -395 0
-1329 410 0
-1329 570 0
-1329 -371 0
-1329 -372 0
-1329 -375 0
-1329 -376 0
-1329 -392 586 0
-1329 -392 -445 0
-1329 -392 -449 0
-1329 -392 -469 0
-1329 -392 -473 0
-1329 -392 -517 0
-1329 -392 -521 0
-1329 -392 -385 -401 0
-1329 -393 587 0
-1329 -393 -446 0
-1329 -393 -450 0
-1329 -393 -470 0
-1329 -393 -474 0
-1329 -393 -518 0
-1329 -393 -522 0
-1329 -393 -385 -402 0
-1329 -394 588 0
-1329 -394 -447 0
-1329 -394 -451 0
-1329 -394 -471 0
-1329 -394 -475 0
-1329 -394 -519 0
-1329 -394 -523 0
-1329 -394 -385 -403 0
-1329 -395 0
-1330 410 0
-1330 571 0
-1330 -371 0
-1330 -372 0
-1330 -373 0
-1330 -376 0
-1330 -392 586 0
-1330 -392 -449 0
-1330 -392 -453 0
-1330 -392 -473 0
-1330 -392 -477 0
-1330 -392 -521 0
-1330 -392 -525 0
-1330 -392 -386 -401 0
-1330 -393 587 0
-1330 -393 -450 0
-1330 -393 -454 0
-1330 -393 -474 0
-1330 -393 -478 0
-1330 -393 -522 0
-1330 -393 -526 0
-1330 -393 -386 -402 0
-1330 -394 588 0
-1330 -394 -451 0
-1330 -394 -455 0
-1330 -394 -475 0
-1330 -394 -479 0
-1330 -394 -523 0
-1330 -394 -527 0
-1330 -394 -386 -403 0
-1330 -395 0
-1331 410 0
-1331 572 0
-1331 -371 0
-1331 -372 0
-1331 -373 0
-1331 -374 0
-1331 -392 586 0
-1331 -392 -453 0
-1331 -392 -457 0
-1331 -392 -477 0
-1331 -392 -481 0
-1331 -392 -525 0
-1331 -392 -529 0
-1331 -392 -387 -401 0
-1331 -393 587 0
-1331 -393 -454 0
-1331 -393 -458 0
-1331 -393 -478 0
-1331 -393 -482 0
-1331 -393 -526 0
-1331 -393 -530 0
-1331 -393 -387 -402 0
-1331 -394 588 0
-1331 -394 -455 0
-1331 -394 -459 0
-1331 -394 -479 0
-1331 -394 -483 0
-1331 -394 -527 0
-1331 -394 -531 0
-1331 -394 -387 -403 0
-1331 -395 0
-1332 410 0
-1332 568 0
-1332 -379 0
-1332 -380 0
-1332 -381 0
-1332 -382 0
-1332 -396 586 0
-1332 -396 -437 0
-1332 -396 -441 0
-1332 -396 -461 0
-1332 -396 -465 0
-1332 -396 -509 0
-1332 -396 -513 0
-1332 -396 -383 -401 0
-1332 -397 587 0
-1332 -397 -438 0
-1332 -397 -442 0
-1332 -397 -462 0
-1332 -397 -466 0
-1332 -397 -510 0
-1332 -397 -514 0
-1332 -397 -383 -402 0
-1332 -398 588 0
-1332 -398 -439 0
-1332 -398 -443 0
-1332 -398 -463 0
-1332 -398 -467 0
-1332 -398 -511 0
-1332 -398 -515 0
-1332 -398 -383 -403 0
-1332 -399 0
-1333 410 0
-1333 569 0
-1333 -377 0
-1333 -380 0
-1333 -381 0
-1333 -382 0
-1333 -396 586 0
-1333 -396 -441 0
-1333 -396 -445 0
-1333 -396 -465 0
-1333 -396 -469 0
-1333 -396 -513 0
-1333 -396 -517 0
-1333 -396 -384 -401 0
-1333 -397 587 0
-1333 -397 -442 0
-1333 -397 -446 0
-1333 -397 -466 0
-1333 -397 -470 0
-1333 -397 -514 0
-1333 -397 -518 0
-1333 -397 -384 -402 0
-1333 -398 588 0
-1333 -398 -443 0
-1333 -398 -447 0
-1333 -398 -467 0
-1333 -398 -471 0
-1333 -398 -515 0
-1333 -398 -519 0
-1333 -398 -384 -403 0
-1333 -399 0
-1334 410 0
-1334 570 0
-1334 -377 0
-1334 -378 0
-1334 -381 0
-1334 -382 0
-1334 -396 586 0
-1334 -396 -445 0
-1334 -396 -449 0
-1334 -396 -469 0
-1334 -396 -473 0
-1334 -396 -517 0
-1334 -396 -521 0
-1334 -396 -385 -401 0
-1334 -397 587 0
-1334 -397 -446 0
-1334 -397 -450 0
-1334 -397 -470 0
-1334 -397 -474 0
-1334 -397 -518 0
-1334 -397 -522 0
-1334 -397 -385 -402 0
-1334 -398 588 0
-1334 -398 -447 0
-1334 -398 -451 0
-1334 -398 -471 0
-1334 -398 -475 0
-1334 -398 -519 0
-1334 -398 -523 0
-1334 -398 -385 -403 0
-1334 -399 0
-1335 410 0
-1335 571 0
-1335 -377 0
-1335 -378 0
-1335 -379 0
-1335 -382 0
-1335 -396 586 0
-1335 -396 -449 0
-1335 -396 -453 0
-1335 -396 -473 0
-1335 -396 -477 0
-1335 -396 -521 0
-1335 -396 -525 0
-1335 -396 -386 -401 0
-1335 -397 587 0
-1335 -397 -450 0
-1335 -397 -454 0
-1335 -397 -474 0
-1335 -397 -478 0
-1335 -397 -522 0
-1335 -397 -526 0
-1335 -397 -386 -402 0
-1335 -398 588 0
-1335 -398 -451 0
-1335 -398 -455 0
-1335 -398 -475 0
-1335 -398 -479 0
-1335 -398 -523 0
-1335 -398 -527 0
-1335 -398 -386 -403 0
-1335 -399 0
-1336 410 0
-1336 572 0
-1336 -377 0
-1336 -378 0
-1336 -379 0
-1336 -380 0
-1336 -396 586 0
-1336 -396 -453 0
-1336 -396 -457 0
-1336 -396 -477 0
-1336 -396 -481 0
-1336 -396 -525 0
-1336 -396 -529 0
-1336 -396 -387 -401 0
-1336 -397 587 0
-1336 -397 -454 0
-1336 -397 -458 0
-1336 -397 -478 0
-1336 -397 -482 0
-1336 -397 -526 0
-1336 -397 -530 0
-1336 -397 -387 -402 0
-1336 -398 588 0
-1336 -398 -455 0
-1336 -398 -459 0
-1336 -398 -479 0
-1336 -398 -483 0
-1336 -398 -527 0
-1336 -398 -531 0
-1336 -398 -387 -403 0
-1336 -399 0
-1337 410 0
-1337 568 0
-1337 -390 0
-1337 -391 0
-1337 -404 586 0
-1337 -404 -437 0
-1337 -404 -441 0
-1337 -404 -461 0
-1337 -404 -465 0
-1337 -404 -509 0
-1337 -404 -513 0
-1337 -404 -383 -401 0
-1337 -405 587 0
-1337 -405 -438 0
-1337 -405 -442 0
-1337 -405 -462 0
-1337 -405 -466 0
-1337 -405 -510 0
-1337 -405 -514 0
-1337 -405 -383 -402 0
-1337 -406 588 0
-1337 -406 -439 0
-1337 -406 -443 0
-1337 -406 -463 0
-1337 -406 -467 0
-1337 -406 -511 0
-1337 -406 -515 0
-1337 -406 -383 -403 0
-1337 -407 0
-1338 410 0
-1338 569 0
-1338 -391 0
-1338 -404 586 0
-1338 -404 -441 0
-1338 -404 -445 0
-1338 -404 -465 0
-1338 -404 -469 0
-1338 -404 -513 0
-1338 -404 -517 0
-1338 -404 -384 -401 0
-1338 -405 587 0
-1338 -405 -442 0
-1338 -405 -446 0
-1338 -405 -466 0
-1338 -405 -470 0
-1338 -405 -514 0
-1338 -405 -518 0
-1338 -405 -384 -402 0
-1338 -406 588 0
-1338 -406 -443 0
-1338 -406 -447 0
-1338 -406 -467 0
-1338 -406 -471 0
-1338 -406 -515 0
-1338 -406 -519 0
-1338 -406 -384 -403 0
-1338 -407 0
-1339 410 0
-1339 570 0
-1339 -404 586 0
-1339 -404 -445 0
-1339 -404 -449 0
-1339 -404 -469 0
-1339 -404 -473 0
-1339 -404 -517 0
-1339 -404 -521 0
-1339 -404 -385 -401 0
-1339 -405 587 0
-1339 -405 -446 0
-1339 -405 -450 0
-1339 -405 -470 0
-1339 -405 -474 0
-1339 -405 -518 0
-1339 -405 -522 0
-1339 -405 -385 -402 0
-1339 -406 588 0
-1339 -406 -447 0
-1339 -406 -451 0
-1339 -406 -471 0
-1339 -406 -475 0
-1339 -406 -519 0
-1339 -406 -523 0
-1339 -406 -385 -403 0
-1339 -407 0
-1340 410 0
-1340 571 0
-1340 -388 0
-1340 -404 586 0
-1340 -404 -449 0
-1340 -404 -453 0
-1340 -404 -473 0
-1340 -404 -477 0
-1340 -404 -521 0
-1340 -404 -525 0
-1340 -404 -386 -401 0
-1340 -405 587 0
-1340 -405 -450 0
-1340 -405 -454 0
-1340 -405 -474 0
-1340 -405 -478 0
-1340 -405 -522 0
-1340 -405 -526 0
-1340 -405 -386 -402 0
-1340 -406 588 0
-1340 -406 -451 0
-1340 -406 -455 0
-1340 -406 -475 0
-1340 -406 -479 0
-1340 -406 -523 0
-1340 -406 -527 0
-1340 -406 -386 -403 0
-1340 -407 0
-1341 410 0
-1341 572 0
-1341 -388 0
-1341 -389 0
-1341 -404 586 0
-1341 -404 -453 0
-1341 -404 -457 0
-1341 -404 -477 0
-1341 -404 -481 0
-1341 -404 -525 0
-1341 -404 -529 0
-1341 -404 -387 -401 0
-1341 -405 587 0
-1341 -405 -454 0
-1341 -405 -458 0
-1341 -405 -478 0
-1341 -405 -482 0
-1341 -405 -526 0
-1341 -405 -530 0
-1341 -405 -387 -402 0
-1341 -406 588 0
-1341 -406 -455 0
-1341 -406 -459 0
-1341 -406 -479 0
-1341 -406 -483 0
-1341 -406 -527 0
-1341 -406 -531 0
-1341 -406 -387 -403 0
-1341 -407 0
-1342 410 0
-1342 568 0
-1342 585 0
-1342 -436 0
-1342 -440 0
-1342 -460 0
-1342 -464 0
-1342 -508 0
-1342 -512 0
-1342 -383 -400 0
-1343 410 0
-1343 569 0
-1343 585 0
-1343 -440 0
-1343 -444 0
-1343 -464 0
-1343 -468 0
-1343 -512 0
-1343 -516 0
-1343 -384 -400 0
-1344 410 0
-1344 570 0
-1344 585 0
-1344 -444 0
-1344 -448 0
-1344 -468 0
-1344 -472 0
-1344 -516 0
-1344 -520 0
-1344 -385 -400 0
-1345 410 0
-1345 571 0
-1345 585 0
-1345 -448 0
-1345 -452 0
-1345 -472 0
-1345 -476 0
-1345 -520 0
-1345 -524 0
-1345 -386 -400 0
-1346 410 0
-1346 572 0
-1346 585 0
-1346 -452 0
-1346 -456 0
-1346 -476 0
-1346 -480 0
-1346 -524 0
-1346 -528 0
-1346 -387 -400 0
-1347 411 0
-1347 573 0
-1347 -374 0
-1347 -375 0
-1347 -376 0
-1347 -392 590 0
-1347 -392 -437 0
-1347 -392 -441 0
-1347 -392 -445 0
-1347 -392 -461 0
-1347 -392 -465 0
-1347 -392 -469 0
-1347 -392 -485 0
-1347 -392 -489 0
-1347 -392 -493 0
-1347 -392 -388 -405 0
-1347 -393 591 0
-1347 -393 -438 0
-1347 -393 -442 0
-1347 -393 -446 0
-1347 -393 -462 0
-1347 -393 -466 0
-1347 -393 -470 0
-1347 -393 -486 0
-1347 -393 -490 0
-1347 -393 -494 0
-1347 -393 -388 -406 0
-1347 -394 592 0
-1347 -394 -439 0
-1347 -394 -443 0
-1347 -394 -447 0
-1347 -394 -463 0
-1347 -394 -467 0
-1347 -394 -471 0
-1347 -394 -487 0
-1347 -394 -491 0
-1347 -394 -495 0
-1347 -394 -388 -407 0
-1347 -395 0
-1348 411 0
-1348 574 0
-1348 -371 0
-1348 -375 0
-1348 -376 0
-1348 -392 590 0
-1348 -392 -441 0
-1348 -392 -445 0
-1348 -392 -449 0
-1348 -392 -465 0
-1348 -392 -469 0
-1348 -392 -473 0
-1348 -392 -489 0
-1348 -392 -493 0
-1348 -392 -497 0
-1348 -392 -389 -405 0
-1348 -393 591 0
-1348 -393 -442 0
-1348 -393 -446 0
-1348 -393 -450 0
-1348 -393 -466 0
-1348 -393 -470 0
-1348 -393 -474 0
-1348 -393 -490 0
-1348 -393 -494 0
-1348 -393 -498 0
-1348 -393 -389 -406 0
-1348 -394 592 0
-1348 -394 -443 0
-1348 -394 -447 0
-1348 -394 -451 0
-1348 -394 -467 0
-1348 -394 -471 0
-1348 -394 -475 0
-1348 -394 -491 0
-1348 -394 -495 0
-1348 -394 -499 0
-1348 -394 -389 -407 0
-1348 -395 0
-1349 411 0
-1349 575 0
-1349 -371 0
-1349 -372 0
-1349 -376 0
-1349 -392 590 0
-1349 -392 -445 0
-1349 -392 -449 0
-1349 -392 -453 0
-1349 -392 -469 0
-1349 -392 -473 0
-1349 -392 -477 0
-1349 -392 -493 0
-1349 -392 -497 0
-1349 -392 -501 0
-1349 -392 -390 -405 0
-1349 -393 591 0
-1349 -393 -446 0
-1349 -393 -450 0
-1349 -393 -454 0
-1349 -393 -470 0
-1349 -393 -474 0
-1349 -393 -478 0
-1349 -393 -494 0
-1349 -393 -498 0
-1349 -393 -502 0
-1349 -393 -390 -406 0
-1349 -394 592 0
-1349 -394 -447 0
-1349 -394 -451 0
-1349 -394 -455 0
-1349 -394 -471 0
-1349 -394 -475 0
-1349 -394 -479 0
-1349 -394 -495 0
-1349 -394 -499 0
-1349 -394 -503 0
-1349 -394 -390 -407 0
-1349 -395 0
-1350 411 0
-1350 576 0
-1350 -371 0
-1350 -372 0
-1350 -373 0
-1350 -392 590 0
-1350 -392 -449 0
-1350 -392 -453 0
-1350 -392 -457 0
-1350 -392 -473 0
-1350 -392 -477 0
-1350 -392 -481 0
-1350 -392 -497 0
-1350 -392 -501 0
-1350 -392 -505 0
-1350 -392 -391 -405 0
-1350 -393 591 0
-1350 -393 -450 0
-1350 -393 -454 0
-1350 -393 -458 0
-1350 -393 -474 0
-1350 -393 -478 0
-1350 -393 -482 0
-1350 -393 -498 0
-1350 -393 -502 0
-1350 -393 -506 0
-1350 -393 -391 -406 0
-1350 -394 592 0
-1350 -394 -451 0
-1350 -394 -455 0
-1350 -394 -459 0
-1350 -394 -475 0
-1350 -394 -479 0
-1350 -394 -483 0
-1350 -394 -499 0
-1350 -394 -503 0
-1350 -394 -507 0
-1350 -394 -391 -407 0
-1350 -395 0
-1351 411 0
-1351 573 0
-1351 -380 0
-1351 -381 0
-1351 -382 0
-1351 -396 590 0
-1351 -396 -437 0
-1351 -396 -441 0
-1351 -396 -445 0
-1351 -396 -461 0
-1351 -396 -465 0
-1351 -396 -469 0
-1351 -396 -485 0
-1351 -396 -489 0
-1351 -396 -493 0
-1351 -396 -388 -405 0
-1351 -397 591 0
-1351 -397 -438 0
-1351 -397 -442 0
-1351 -397 -446 0
-1351 -397 -462 0
-1351 -397 -466 0
-1351 -397 -470 0
-1351 -397 -486 0
-1351 -397 -490 0
-1351 -397 -494 0
-1351 -397 -388 -406 0
-1351 -398 592 0
-1351 -398 -439 0
-1351 -398 -443 0
-1351 -398 -447 0
-1351 -398 -463 0
-1351 -398 -467 0
-1351 -398 -471 0
-1351 -398 -487 0
-1351 -398 -491 0
-1351 -398 -495 0
-1351 -398 -388 -407 0
-1351 -399 0
-1352 411 0
-1352 574 0
-1352 -377 0
-1352 -381 0
-1352 -382 0
-1352 -396 590 0
-1352 -396 -441 0
-1352 -396 -445 0
-1352 -396 -449 0
-1352 -396 -465 0
-1352 -396 -469 0
-1352 -396 -473 0
-1352 -396 -489 0
-1352 -396 -493 0
-1352 -396 -497 0
-1352 -396 -389 -405 0
-1352 -397 591 0
-1352 -397 -442 0
-1352 -397 -446 0
-1352 -397 -450 0
-1352 -397 -466 0
-1352 -397 -470 0
-1352 -397 -474 0
-1352 -397 -490 0
-1352 -397 -494 0
-1352 -397 -498 0
-1352 -397 -389 -406 0
-1352 -398 592 0
-1352 -398 -443 0
-1352 -398 -447 0
-1352 -398 -451 0
-1352 -398 -467 0
-1352 -398 -471 0
-1352 -398 -475 0
-1352 -398 -491 0
-1352 -398 -495 0
-1352 -398 -499 0
-1352 -398 -389 -407 0
-1352 -399 0
-1353 411 0
-1353 575 0
-1353 -377 0
-1353 -378 0
-1353 -382 0
-1353 -396 590 0
-1353 -396 -445 0
-1353 -396 -449 0
-1353 -396 -453 0
-1353 -396 -469 0
-1353 -396 -473 0
-1353 -396 -477 0
-1353 -396 -493 0
-1353 -396 -497 0
-1353 -396 -501 0
-1353 -396 -390 -405 0
-1353 -397 591 0
-1353 -397 -446 0
-1353 -397 -450 0
-1353 -397 -454 0
-1353 -397 -470 0
-1353 -397 -474 0
-1353 -397 -478 0
-1353 -397 -494 0
-1353 -397 -498 0
-1353 -397 -502 0
-1353 -397 -390 -406 0
-1353 -398 592 0
-1353 -398 -447 0
-1353 -398 -451 0
-1353 -398 -455 0
-1353 -398 -471 0
-1353 -398 -475 0
-1353 -398 -479 0
-1353 -398 -495 0
-1353 -398 -499 0
-1353 -398 -503 0
-1353 -398 -390 -407 0
-1353 -399 0
-1354 411 0
-1354 576 0
-1354 -377 0
-1354 -378 0
-1354 -379 0
-1354 -396 590 0
-1354 -396 -449 0
-1354 -396 -453 0
-1354 -396 -457 0
-1354 -396 -473 0
-1354 -396 -477 0
-1354 -396 -481 0
-1354 -396 -497 0
-1354 -396 -501 0
-1354 -396 -505 0
-1354 -396 -391 -405 0
-1354 -397 591 0
-1354 -397 -450 0
-1354 -397 -454 0
-1354 -397 -458 0
-1354 -397 -474 0
-1354 -397 -478 0
-1354 -397 -482 0
-1354 -397 -498 0
-1354 -397 -502 0
-1354 -397 -506 0
-1354 -397 -391 -406 0
-1354 -398 592 0
-1354 -398 -451 0
-1354 -398 -455 0
-1354 -398 -459 0
-1354 -398 -475 0
-1354 -398 -479 0
-1354 -398 -483 0
-1354 -398 -499 0
-1354 -398 -503 0
-1354 -398 -507 0
-1354 -398 -391 -407 0
-1354 -399 0
-1355 411 0
-1355 573 0
-1355 -386 0
-1355 -387 0
-1355 -400 590 0
-1355 -400 -437 0
-1355 -400 -441 0
-1355 -400 -445 0
-1355 -400 -461 0
-1355 -400 -465 0
-1355 -400 -469 0
-1355 -400 -485 0
-1355 -400 -489 0
-1355 -400 -493 0
-1355 -400 -388 -405 0
-1355 -401 591 0
-1355 -401 -438 0
-1355 -401 -442 0
-1355 -401 -446 0
-1355 -401 -462 0
-1355 -401 -466 0
-1355 -401 -470 0
-1355 -401 -486 0
-1355 -401 -490 0
-1355 -401 -494 0
-1355 -401 -388 -406 0
-1355 -402 592 0
-1355 -402 -439 0
-1355 -402 -443 0
-1355 -402 -447 0
-1355 -402 -463 0
-1355 -402 -467 0
-1355 -402 -471 0
-1355 -402 -487 0
-1355 -402 -491 0
-1355 -402 -495 0
-1355 -402 -388 -407 0
-1355 -403 0
-1356 411 0
-1356 574 0
-1356 -387 0
-1356 -400 590 0
-1356 -400 -441 0
-1356 -400 -445 0
-1356 -400 -449 0
-1356 -400 -465 0
-1356 -400 -469 0
-1356 -400 -473 0
-1356 -400 -489 0
-1356 -400 -493 0
-1356 -400 -497 0
-1356 -400 -389 -405 0
-1356 -401 591 0
-1356 -401 -442 0
-1356 -401 -446 0
-1356 -401 -450 0
-1356 -401 -466 0
-1356 -401 -470 0
-1356 -401 -474 0
-1356 -401 -490 0
-1356 -401 -494 0
-1356 -401 -498 0
-1356 -401 -389 -406 0
-1356 -402 592 0
-1356 -402 -443 0
-1356 -402 -447 0
-1356 -402 -451 0
-1356 -402 -467 0
-1356 -402 -471 0
-1356 -402 -475 0
-1356 -402 -491 0
-1356 -402 -495 0
-1356 -402 -499 0
-1356 -402 -389 -407 0
-1356 -403 0
-1357 411 0
-1357 575 0
-1357 -383 0
-1357 -400 590 0
-1357 -400 -445 0
-1357 -400 -449 0
-1357 -400 -453 0
-1357 -400 -469 0
-1357 -400 -473 0
-1357 -400 -477 0
-1357 -400 -493 0
-1357 -400 -497 0
-1357 -400 -501 0
-1357 -400 -390 -405 0
-1357 -401 591 0
-1357 -401 -446 0
-1357 -401 -450 0
-1357 -401 -454 0
-1357 -401 -470 0
-1357 -401 -474 0
-1357 -401 -478 0
-1357 -401 -494 0
-1357 -401 -498 0
-1357 -401 -502 0
-1357 -401 -390 -406 0
-1357 -402 592 0
-1357 -402 -447 0
-1357 -402 -451 0
-1357 -402 -455 0
-1357 -402 -471 0
-1357 -402 -475 0
-1357 -402 -479 0
-1357 -402 -495 0
-1357 -402 -499 0
-1357 -402 -503 0
-1357 -402 -390 -407 0
-1357 -403 0
-1358 411 0
-1358 576 0
-1358 -383 0
-1358 -384 0
-1358 -400 590 0
-1358 -400 -449 0
-1358 -400 -453 0
-1358 -400 -457 0
-1358 -400 -473 0
-1358 -400 -477 0
-1358 -400 -481 0
-1358 -400 -497 0
-1358 -400 -501 0
-1358 -400 -505 0
-1358 -400 -391 -405 0
-1358 -401 591 0
-1358 -401 -450 0
-1358 -401 -454 0
-1358 -401 -458 0
-1358 -401 -474 0
-1358 -401 -478 0
-1358 -401 -482 0
-1358 -401 -498 0
-1358 -401 -502 0
-1358 -401 -506 0
-1358 -401 -391 -406 0
-1358 -402 592 0
-1358 -402 -451 0
-1358 -402 -455 0
-1358 -402 -459 0
-1358 -402 -475 0
-1358 -402 -479 0
-1358 -402 -483 0
-1358 -402 -499 0
-1358 -402 -503 0
-1358 -402 -507 0
-1358 -402 -391 -407 0
-1358 -403 0
-1359 411 0
-1359 573 0
-1359 589 0
-1359 -436 0
-1359 -440 0
-1359 -444 0
-1359 -460 0
-1359 -464 0
-1359 -468 0
-1359 -484 0
-1359 -488 0
-1359 -492 0
-1359 -388 -404 0
-1360 411 0
-1360 574 0
-1360 589 0
-1360 -440 0
-1360 -444 0
-1360 -448 0
-1360 -464 0
-1360 -468 0
-1360 -472 0
-1360 -488 0
-1360 -492 0
-1360 -496 0
-1360 -389 -404 0
-1361 411 0
-1361 575 0
-1361 589 0
-1361 -444 0
-1361 -448 0
-1361 -452 0
-1361 -468 0
-1361 -472 0
-1361 -476 0
-1361 -492 0
-1361 -496 0
-1361 -500 0
-1361 -390 -404 0
-1362 411 0
-1362 576 0
-1362 589 0
-1362 -448 0
-1362 -452 0
-1362 -456 0
-1362 -472 0
-1362 -476 0
-1362 -480 0
-1362 -496 0
-1362 -500 0
-1362 -504 0
-1362 -391 -404 0
-371 556 1279 1280 1281 1282 1283 1284 1285 1286 1287 1288 1289 1290 1291 1292 1293 1294 1295 1296 1297 1298 1299 1300 1301 1302 0
-372 557 1279 1280 1281 1282 1283 1284 1285 1286 1287 1288 1289 1290 1291 1292 1293 1294 1295 1296 1297 1298 1299 1300 1301 1302 0
-373 558 1279 1280 1281 1282 1283 1284 1285 1286 1287 1288 1289 1290 1291 1292 1293 1294 1295 1296 1297 1298 1299 1300 1301 1302 0
-374 559 1279 1280 1281 1282 1283 1284 1285 1286 1287 1288 1289 1290 1291 1292 1293 1294 1295 1296 1297 1298 1299 1300 1301 1302 0
-375 560 1279 1280 1281 1282 1283 1284 1285 1286 1287 1288 1289 1290 1291 1292 1293 1294 1295 1296 1297 1298 1299 1300 1301 1302 0
-376 561 1279 1280 1281 1282 1283 1284 1285 1286 1287 1288 1289 1290 1291 1292 1293 1294 1295 1296 1297 1298 1299 1300 1301 1302 0
-392 577 1279 1280 1281 1282 1283 1284 1285 1286 1287 1288 1289 1290 1291 1292 1293 1294 1295 1296 1297 1298 1299 1300 1301 1302 0
-393 578 1279 1280 1281 1282 1283 1284 1285 1286 1287 1288 1289 1290 1291 1292 1293 1294 1295 1296 1297 1298 1299 1300 1301 1302 0
-394 579 1279 1280 1281 1282 1283 1284 1285 1286 1287 1288 1289 1290 1291 1292 1293 1294 1295 1296 1297 1298 1299 1300 1301 1302 0
-395 580 1279 1280 1281 1282 1283 1284 1285 1286 1287 1288 1289 1290 1291 1292 1293 1294 1295 1296 1297 1298 1299 1300 1301 1302 0
-377 562 1303 1304 1305 1306 1307 1308 1309 1310 1311 1312 1313 1314 1315 1316 1317 1318 1319 1320 1321 1322 1323 1324 1325 1326 0
-378 563 1303 1304 1305 1306 1307 1308 1309 1310 1311 1312 1313 1314 1315 1316 1317 1318 1319 1320 1321 1322 1323 1324 1325 1326 0
-379 564 1303 1304 1305 1306 1307 1308 1309 1310 1311 1312 1313 1314 1315 1316 1317 1318 1319 1320 1321 1322 1323 1324 1325 1326 0
-380 565 1303 1304 1305 1306 1307 1308 1309 1310 1311 1312 1313 1314 1315 1316 1317 1318 1319 1320 1321 1322 1323 1324 1325 1326 0
-381 566 1303 1304 1305 1306 1307 1308 1309 1310 1311 1312 1313 1314 1315 1316 1317 1318 1319 1320 1321 1322 1323 1324 1325 1326 0
-382 567 1303 1304 1305 1306 1307 1308 1309 1310 1311 1312 1313 1314 1315 1316 1317 1318 1319 1320 1321 1322 1323 1324 1325 1326 0
-396 581 1303 1304 1305 1306 1307 1308 1309 1310 1311 1312 1313 1314 1315 1316 1317 1318 1319 1320 1321 1322 1323 1324 1325 1326 0
-397 582 1303 1304 1305 1306 1307 1308 1309 1310 1311 1312 1313 1314 1315 1316 1317 1318 1319 1320 1321 1322 1323 1324 1325 1326 0
-398 583 1303 1304 1305 1306 1307 1308 1309 1310 1311 1312 1313 1314 1315 1316 1317 1318 1319 1320 1321 1322 1323 1324 1325 1326 0
-399 584 1303 1304 1305 1306 1307 1308 1309 1310 1311 1312 1313 1314 1315 1316 1317 1318 1319 1320 1321 1322 1323 1324 1325 1326 0
-383 568 1327 1328 1329 1330 1331 1332 1333 1334 1335 1336 1337 1338 1339 1340 1341 1342 1343 1344 1345 1346 0
-384 569 1327 1328 1329 1330 1331 1332 1333 1334 1335 1336 1337 1338 1339 1340 1341 1342 1343 1344 1345 1346 0
-385 570 1327 1328 1329 1330 1331 1332 1333 1334 1335 1336 1337 1338 1339 1340 1341 1342 1343 1344 1345 1346 0
-386 571 1327 1328 1329 1330 1331 1332 1333 1334 1335 1336 1337 1338 1339 1340 1341 1342 1343 1344 1345 1346 0
-387 572 1327 1328 1329 1330 1331 1332 1333 1334 1335 1336 1337 1338 1339 1340 1341 1342 1343 1344 1345 1346 0
-400 585 1327 1328 1329 1330 1331 1332 1333 1334 1335 1336 1337 1338 1339 1340 1341 1342 1343 1344 1345 1346 0
-401 586 1327 1328 1329 1330 1331 1332 1333 1334 1335 1336 1337 1338 1339 1340 1341 1342 1343 1344 1345 1346 0
-402 587 1327 1328 1329 1330 1331 1332 1333 1334 1335 1336 1337 1338 1339 1340 1341 1342 1343 1344 1345 1346 0
-403 588 1327 1328 1329 1330 1331 1332 1333 1334 1335 1336 1337 1338 1339 1340 1341 1342 1343 1344 1345 1346 0
-388 573 1347 1348 1349 1350 1351 1352 1353 1354 1355 1356 1357 1358 1359 1360 1361 1362 0
-389 574 1347 1348 1349 1350 1351 1352 1353 1354 1355 1356 1357 1358 1359 1360 1361 1362 0
-390 575 1347 1348 1349 1350 1351 1352 1353 1354 1355 1356 1357 1358 1359 1360 1361 1362 0
-391 576 1347 1348 1349 1350 1351 1352 1353 1354 1355 1356 1357 1358 1359 1360 1361 1362 0
-404 589 1347 1348 1349 1350 1351 1352 1353 1354 1355 1356 1357 1358 1359 1360 1361 1362 0
-405 590 1347 1348 1349 1350 1351 1352 1353 1354 1355 1356 1357 1358 1359 1360 1361 1362 0
-406 591 1347 1348 1349 1350 1351 1352 1353 1354 1355 1356 1357 1358 1359 1360 1361 1362 0
-407 592 1347 1348 1349 1350 1351 1352 1353 1354 1355 1356 1357 1358 1359 1360 1361 1362 0
-1363 -1364 0
-1363 -1365 0
-1363 -1366 0
-1363 -1367 0
-1363 -1368 0
-1363 -1369 0
-1363 -1370 0
-1363 -1371 0
-1363 -1372 0
-1363 -1373 0
-1363 -1374 0
-1363 -1375 0
-1363 -1376 0
-1363 -1377 0
-1363 -1378 0
-1363 -1379 0
-1363 -1380 0
-1363 -1381 0
-1363 -1382 0
-1363 -1383 0
-1363 -1384 0
-1363 -1385 0
-1363 -1386 0
-1363 -1387 0
-1363 -1388 0
-1363 -1389 0
-1363 -1390 0
-1363 -1391 0
-1363 -1392 0
-1363 -1393 0
-1363 -1394 0
-1363 -1395 0
-1363 -1396 0
-1363 -1397 0
-1363 -1398 0
-1363 -1399 0
-1363 -1400 0
-1363 -1401 0
-1363 -1402 0
-1363 -1403 0
-1363 -1404 0
-1363 -1405 0
-1363 -1406 0
-1363 -1407 0
-1363 -1408 0
-1363 -1409 0
-1363 -1410 0
-1363 -1411 0
-1363 -1412 0
-1363 -1413 0
-1363 -1414 0
-1363 -1415 0
-1363 -1416 0
-1363 -1417 0
-1363 -1418 0
-1363 -1419 0
-1363 -1420 0
-1363 -1421 0
-1363 -1422 0
-1363 -1423 0
-1363 -1424 0
-1363 -1425 0
-1363 -1426 0
-1363 -1427 0
-1363 -1428 0
-1363 -1429 0
-1363 -1430 0
-1363 -1431 0
-1363 -1432 0
-1363 -1433 0
-1363 -1434 0
-1363 -1435 0
-1363 -1436 0
-1363 -1437 0
-1363 -1438 0
-1363 -1439 0
-1363 -1440 0
-1363 -1441 0
-1363 -1442 0
-1363 -1443 0
-1363 -1444 0
-1363 -1445 0
-1363 -1446 0
-1364 -1365 0
-1364 -1366 0
-1364 -1367 0
-1364 -1368 0
-1364 -1369 0
-1364 -1370 0
-1364 -1371 0
-1364 -1372 0
-1364 -1373 0
-1364 -1374 0
-1364 -1375 0
-1364 -1376 0
-1364 -1377 0
-1364 -1378 0
-1364 -1379 0
-1364 -1380 0
-1364 -1381 0
-1364 -1382 0
-1364 -1383 0
-1364 -1384 0
-1364 -1385 0
-1364 -1386 0
-1364 -1387 0
-1364 -1388 0
-1364 -1389 0
-1364 -1390 0
-1364 -1391 0
-1364 -1392 0
-1364 -1393 0
-1364 -1394 0
-1364 -1395 0
-1364 -1396 0
-1364 -1397 0
-1364 -1398 0
-1364 -1399 0
-1364 -1400 0
-1364 -1401 0
-1364 -1402 0
-1364 -1403 0
-1364 -1404 0
-1364 -1405 0
-1364 -1406 0
-1364 -1407 0
-1364 -1408 0
-1364 -1409 0
-1364 -1410 0
-1364 -1411 0
-1364 -1412 0
-1364 -1413 0
-1364 -1414 0
-1364 -1415 0
-1364 -1416 0
-1364 -1417 0
-1364 -1418 0
-1364 -1419 0
-1364 -1420 0
-1364 -1421 0
-1364 -1422 0
-1364 -1423 0
-1364 -1424 0
-1364 -1425 0
-1364 -1426 0
-1364 -1427 0
-1364 -1428 0
-1364 -1429 0
-1364 -1430 0
-1364 -1431 0
-1364 -1432 0
-1364 -1433 0
-1364 -1434 0
-1364 -1435 0
-1364 -1436 0
-1364 -1437 0
-1364 -1438 0
-1364 -1439 0
-1364 -1440 0
-1364 -1441 0
-1364 -1442 0
-1364 -1443 0
-1364 -1444 0
-1364 -1445 0
-1364 -1446 0
-1365 -1366 0
-1365 -1367 0
-1365 -1368 0
-1365 -1369 0
-1365 -1370 0
-1365 -1371 0
-1365 -1372 0
-1365 -1373 0
-1365 -1374 0
-1365 -1375 0
-1365 -1376 0
-1365 -1377 0
-1365 -1378 0
-1365 -1379 0
-1365 -1380 0
-1365 -1381 0
-1365 -1382 0
-1365 -1383 0
-1365 -1384 0
-1365 -1385 0
-1365 -1386 0
-1365 -1387 0
-1365 -1388 0
-1365 -1389 0
-1365 -1390 0
-1365 -1391 0
-1365 -1392 0
-1365 -1393 0
-1365 -1394 0
-1365 -1395 0
-1365 -1396 0
-1365 -1397 0
-1365 -1398 0
-1365 -1399 0
-1365 -1400 0
-1365 -1401 0
-1365 -1402 0
-1365 -1403 0
-1365 -1404 0
-1365 -1405 0
-1365 -1406 0
-1365 -1407 0
-1365 -1408 0
-1365 -1409 0
-1365 -1410 0
-1365 -1411 0
-1365 -1412 0
-1365 -1413 0
-1365 -1414 0
-1365 -1415 0
-1365 -1416 0
-1365 -1417 0
-1365 -1418 0
-1365 -1419 0
-1365 -1420 0
-1365 -1421 0
-1365 -1422 0
-1365 -1423 0
-1365 -1424 0
-1365 -1425 0
-1365 -1426 0
-1365 -1427 0
-1365 -1428 0
-1365 -1429 0
-1365 -1430 0
-1365 -1431 0
-1365 -1432 0
-1365 -1433 0
-1365 -1434 0
-1365 -1435 0
-1365 -1436 0
-1365 -1437 0
-1365 -1438 0
-1365 -1439 0
-1365 -1440 0
-1365 -1441 0
-1365 -1442 0
-1365 -1443 0
-1365 -1444 0
-1365 -1445 0
-1365 -1446 0
-1366 -1367 0
-1366 -1368 0
-1366 -1369 0
-1366 -1370 0
-1366 -1371 0
-1366 -1372 0
-1366 -1373 0
-1366 -1374 0
-1366 -1375 0
-1366 -1376 0
-1366 -1377 0
-1366 -1378 0
-1366 -1379 0
-1366 -1380 0
-1366 -1381 0
-1366 -1382 0
-1366 -1383 0
-1366 -1384 0
-1366 -1385 0
-1366 -1386 0
-1366 -1387 0
-1366 -1388 0
-1366 -1389 0
-1366 -1390 0
-1366 -1391 0
-1366 -1392 0
-1366 -1393 0
-1366 -1394 0
-1366 -1395 0
-1366 -1396 0
-1366 -1397 0
-1366 -1398 0
-1366 -1399 0
-1366 -1400 0
-1366 -1401 0
-1366 -1402 0
-1366 -1403 0
-1366 -1404 0
-1366 -1405 0
-1366 -1406 0
-1366 -1407 0
-1366 -1408 0
-1366 -1409 0
-1366 -1410 0
-1366 -1411 0
-1366 -1412 0
-1366 -1413 0
-1366 -1414 0
-1366 -1415 0
-1366 -1416 0
-1366 -1417 0
-1366 -1418 0
-1366 -1419 0
-1366 -1420 0
-1366 -1421 0
-1366 -1422 0
-1366 -1423 0
-1366 -1424 0
-1366 -1425 0
-1366 -1426 0
-1366 -1427 0
-1366 -1428 0
-1366 -1429 0
-1366 -1430 0
-1366 -1431 0
-1366 -1432 0
-1366 -1433 0
-1366 -1434 0
-1366 -1435 0
-1366 -1436 0
-1366 -1437 0
-1366 -1438 0
-1366 -1439 0
-1366 -1440 0
-1366 -1441 0
-1366 -1442 0
-1366 -1443 0
-1366 -1444 0
-1366 -1445 0
-1366 -1446 0
-1367 -1368 0
-1367 -1369 0
-1367 -1370 0
-1367 -1371 0
-1367 -1372 0
-1367 -1373 0
-1367 -1374 0
-1367 -1375 0
-1367 -1376 0
-1367 -1377 0
-1367 -1378 0
-1367 -1379 0
-1367 -1380 0
-1367 -1381 0
-1367 -1382 0
-1367 -1383 0
-1367 -1384 0
-1367 -1385 0
-1367 -1386 0
-1367 -1387 0
-1367 -1388 0
-1367 -1389 0
-1367 -1390 0
-1367 -1391 0
-1367 -1392 0
-1367 -1393 0
-1367 -1394 0
-1367 -1395 0
-1367 -1396 0
-1367 -1397 0
-1367 -1398 0
-1367 -1399 0
-1367 -1400 0
-1367 -1401 0
-1367 -1402 0
-1367 -1403 0
-1367 -1404 0
-1367 -1405 0
-1367 -1406 0
-1367 -1407 0
-1367 -1408 0
-1367 -1409 0
-1367 -1410 0
-1367 -1411 0
-1367 -1412 0
-1367 -1413 0
-1367 -1414 0
-1367 -1415 0
-1367 -1416 0
-1367 -1417 0
-1367 -1418 0
-1367 -1419 0
-1367 -1420 0
-1367 -1421 0
-1367 -1422 0
-1367 -1423 0
-1367 -1424 0
-1367 -1425 0
-1367 -1426 0
-1367 -1427 0
-1367 -1428 0
-1367 -1429 0
-1367 -1430 0
-1367 -1431 0
-1367 -1432 0
-1367 -1433 0
-1367 -1434 0
-1367 -1435 0
-1367 -1436 0
-1367 -1437 0
-1367 -1438 0
-1367 -1439 0
-1367 -1440 0
-1367 -1441 0
-1367 -1442 0
-1367 -1443 0
-1367 -1444 0
-1367 -1445 0
-1367 -1446 0
-1368 -1369 0
-1368 -1370 0
-1368 -1371 0
-1368 -1372 0
-1368 -1373 0
-1368 -1374 0
-1368 -1375 0
-1368 -1376 0
-1368 -1377 0
-1368 -1378 0
-1368 -1379 0
-1368 -1380 0
-1368 -1381 0
-1368 -1382 0
-1368 -1383 0
-1368 -1384 0
-1368 -1385 0
-1368 -1386 0
-1368 -1387 0
-1368 -1388 0
-1368 -1389 0
-1368 -1390 0
-1368 -1391 0
-1368 -1392 0
-1368 -1393 0
-1368 -1394 0
-1368 -1395 0
-1368 -1396 0
-1368 -1397 0
-1368 -1398 0
-1368 -1399 0
-1368 -1400 0
-1368 -1401 0
-1368 -1402 0
-1368 -1403 0
-1368 -1404 0
-1368 -1405 0
-1368 -1406 0
-1368 -1407 0
-1368 -1408 0
-1368 -1409 0
-1368 -1410 0
-1368 -1411 0
-1368 -1412 0
-1368 -1413 0
-1368 -1414 0
-1368 -1415 0
-1368 -1416 0
-1368 -1417 0
-1368 -1418 0
-1368 -1419 0
-1368 -1420 0
-1368 -1421 0
-1368 -1422 0
-1368 -1423 0
-1368 -1424 0
-1368 -1425 0
-1368 -1426 0
-1368 -1427 0
-1368 -1428 0
-1368 -1429 0
-1368 -1430 0
-1368 -1431 0
-1368 -1432 0
-1368 -1433 0
-1368 -1434 0
-1368 -1435 0
-1368 -1436 0
-1368 -1437 0
-1368 -1438 0
-1368 -1439 0
-1368 -1440 0
-1368 -1441 0
-1368 -1442 0
-1368 -1443 0
-1368 -1444 0
-1368 -1445 0
-1368 -1446 0
-1369 -1370 0
-1369 -1371 0
-1369 -1372 0
-1369 -1373 0
-1369 -1374 0
-1369 -1375 0
-1369 -1376 0
-1369 -1377 0
-1369 -1378 0
-1369 -1379 0
-1369 -1380 0
-1369 -1381 0
-1369 -1382 0
-1369 -1383 0
-1369 -1384 0
-1369 -1385 0
-1369 -1386 0
-1369 -1387 0
-1369 -1388 0
-1369 -1389 0
-1369 -1390 0
-1369 -1391 0
-1369 -1392 0
-1369 -1393 0
-1369 -1394 0
-1369 -1395 0
-1369 -1396 0
-1369 -1397 0
-1369 -1398 0
-1369 -1399 0
-1369 -1400 0
-1369 -1401 0
-1369 -1402 0
-1369 -1403 0
-1369 -1404 0
-1369 -1405 0
-1369 -1406 0
-1369 -1407 0
-1369 -1408 0
-1369 -1409 0
-1369 -1410 0
-1369 -1411 0
-1369 -1412 0
-1369 -1413 0
-1369 -1414 0
-1369 -1415 0
-1369 -1416 0
-1369 -1417 0
-1369 -1418 0
-1369 -1419 0
-1369 -1420 0
-1369 -1421 0
-1369 -1422 0
-1369 -1423 0
-1369 -1424 0
-1369 -1425 0
-1369 -1426 0
-1369 -1427 0
-1369 -1428 0
-1369 -1429 0
-1369 -1430 0
-1369 -1431 0
-1369 -1432 0
-1369 -1433 0
-1369 -1434 0
-1369 -1435 0
-1369 -1436 0
-1369 -1437 0
-1369 -1438 0
-1369 -1439 0
-1369 -1440 0
-1369 -1441 0
-1369 -1442 0
-1369 -1443 0
-1369 -1444 0
-1369 -1445 0
-1369 -1446 0
-1370 -1371 0
-1370 -1372 0
-1370 -1373 0
-1370 -1374 0
-1370 -1375 0
-1370 -1376 0
-1370 -1377 0
-1370 -1378 0
-1370 -1379 0
-1370 -1380 0
-1370 -1381 0
-1370 -1382 0
-1370 -1383 0
-1370 -1384 0
-1370 -1385 0
-1370 -1386 0
-1370 -1387 0
-1370 -1388 0
-1370 -1389 0
-1370 -1390 0
-1370 -1391 0
-1370 -1392 0
-1370 -1393 0
-1370 -1394 0
-1370 -1395 0
-1370 -1396 0
-1370 -1397 0
-1370 -1398 0
-1370 -1399 0
-1370 -1400 0
-1370 -1401 0
-1370 -1402 0
-1370 -1403 0
-1370 -1404 0
-1370 -1405 0
-1370 -1406 0
-1370 -1407 0
-1370 -1408 0
-1370 -1409 0
-1370 -1410 0
-1370 -1411 0
-1370 -1412 0
-1370 -1413 0
-1370 -1414 0
-1370 -1415 0
-1370 -1416 0
-1370 -1417 0
-1370 -1418 0
-1370 -1419 0
-1370 -1420 0
-1370 -1421 0
-1370 -1422 0
-1370 -1423 0
-1370 -1424 0
-1370 -1425 0
-1370 -1426 0
-1370 -1427 0
-1370 -1428 0
-1370 -1429 0
-1370 -1430 0
-1370 -1431 0
-1370 -1432 0
-1370 -1433 0
-1370 -1434 0
-1370 -1435 0
-1370 -1436 0
-1370 -1437 0
-1370 -1438 0
-1370 -1439 0
-1370 -1440 0
-1370 -1441 0
-1370 -1442 0
-1370 -1443 0
-1370 -1444 0
-1370 -1445 0
-1370 -1446 0
-1371 -1372 0
-1371 -1373 0
-1371 -1374 0
-1371 -1375 0
-1371 -1376 0
-1371 -1377 0
-1371 -1378 0
-1371 -1379 0
-1371 -1380 0
-1371 -1381 0
-1371 -1382 0
-1371 -1383 0
-1371 -1384 0
-1371 -1385 0
-1371 -1386 0
-1371 -1387 0
-1371 -1388 0
-1371 -1389 0
-1371 -1390 0
-1371 -1391 0
-1371 -1392 0
-1371 -1393 0
-1371 -1394 0
-1371 -1395 0
-1371 -1396 0
-1371 -1397 0
-1371 -1398 0
-1371 -1399 0
-1371 -1400 0
-1371 -1401 0
-1371 -1402 0
-1371 -1403 0
-1371 -1404 0
-1371 -1405 0
-1371 -1406 0
-1371 -1407 0
-1371 -1408 0
-1371 -1409 0
-1371 -1410 0
-1371 -1411 0
-1371 -1412 0
-1371 -1413 0
-1371 -1414 0
-1371 -1415 0
-1371 -1416 0
-1371 -1417 0
-1371 -1418 0
-1371 -1419 0
-1371 -1420 0
-1371 -1421 0
-1371 -1422 0
-1371 -1423 0
-1371 -1424 0
-1371 -1425 0
-1371 -1426 0
-1371 -1427 0
-1371 -1428 0
-1371 -1429 0
-1371 -1430 0
-1371 -1431 0
-1371 -1432 0
-1371 -1433 0
-1371 -1434 0
-1371 -1435 0
-1371 -1436 0
-1371 -1437 0
-1371 -1438 0
-1371 -1439 0
-1371 -1440 0
-1371 -1441 0
-1371 -1442 0
-1371 -1443 0
-1371 -1444 0
-1371 -1445 0
-1371 -1446 0
-1372 -1373 0
-1372 -1374 0
-1372 -1375 0
-1372 -1376 0
-1372 -1377 0
-1372 -1378 0
-1372 -1379 0
-1372 -1380 0
-1372 -1381 0
-1372 -1382 0
-1372 -1383 0
-1372 -1384 0
-1372 -1385 0
-1372 -1386 0
-1372 -1387 0
-1372 -1388 0
-1372 -1389 0
-1372 -1390 0
-1372 -1391 0
-1372 -1392 0
-1372 -1393 0
-1372 -1394 0
-1372 -1395 0
-1372 -1396 0
-1372 -1397 0
-1372 -1398 0
-1372 -1399 0
-1372 -1400 0
-1372 -1401 0
-1372 -1402 0
-1372 -1403 0
-1372 -1404 0
-1372 -1405 0
-1372 -1406 0
-1372 -1407 0
-1372 -1408 0
-1372 -1409 0
-1372 -1410 0
-1372 -1411 0
-1372 -1412 0
-1372 -1413 0
-1372 -1414 0
-1372 -1415 0
-1372 -1416 0
-1372 -1417 0
-1372 -1418 0
-1372 -1419 0
-1372 -1420 0
-1372 -1421 0
-1372 -1422 0
-1372 -1423 0
-1372 -1424 0
-1372 -1425 0
-1372 -1426 0
-1372 -1427 0
-1372 -1428 0
-1372 -1429 0
-1372 -1430 0
-1372 -1431 0
-1372 -1432 0
-1372 -1433 0
-1372 -1434 0
-1372 -1435 0
-1372 -1436 0
-1372 -1437 0
-1372 -1438 0
-1372 -1439 0
-1372 -1440 0
-1372 -1441 0
-1372 -1442 0
-1372 -1443 0
-1372 -1444 0
-1372 -1445 0
-1372 -1446 0
-1373 -1374 0
-1373 -1375 0
-1373 -1376 0
-1373 -1377 0
-1373 -1378 0
-1373 -1379 0
-1373 -1380 0
-1373 -1381 0
-1373 -1382 0
-1373 -1383 0
-1373 -1384 0
-1373 -1385 0
-1373 -1386 0
-1373 -1387 0
-1373 -1388 0
-1373 -1389 0
-1373 -1390 0
-1373 -1391 0
-1373 -1392 0
-1373 -1393 0
-1373 -1394 0
-1373 -1395 0
-1373 -1396 0
-1373 -1397 0
-1373 -1398 0
-1373 -1399 0
-1373 -1400 0
-1373 -1401 0
-1373 -1402 0
-1373 -1403 0
-1373 -1404 0
-1373 -1405 0
-1373 -1406 0
-1373 -1407 0
-1373 -1408 0
-1373 -1409 0
-1373 -1410 0
-1373 -1411 0
-1373 -1412 0
-1373 -1413 0
-1373 -1414 0
-1373 -1415 0
-1373 -1416 0
-1373 -1417 0
-1373 -1418 0
-1373 -1419 0
-1373 -1420 0
-1373 -1421 0
-1373 -1422 0
-1373 -1423 0
-1373 -1424 0
-1373 -1425 0
-1373 -1426 0
-1373 -1427 0
-1373 -1428 0
-1373 -1429 0
-1373 -1430 0
-1373 -1431 0
-1373 -1432 0
-1373 -1433 0
-1373 -1434 0
-1373 -1435 0
-1373 -1436 0
-1373 -1437 0
-1373 -1438 0
-1373 -1439 0
-1373 -1440 0
-1373 -1441 0
-1373 -1442 0
-1373 -1443 0
-1373 -1444 0
-1373 -1445 0
-1373 -1446 0
-1374 -1375 0
-1374 -1376 0
-1374 -1377 0
-1374 -1378 0
-1374 -1379 0
-1374 -1380 0
-1374 -1381 0
-1374 -1382 0
-1374 -1383 0
-1374 -1384 0
-1374 -1385 0
-1374 -1386 0
-1374 -1387 0
-1374 -1388 0
-1374 -1389 0
-1374 -1390 0
-1374 -1391 0
-1374 -1392 0
-1374 -1393 0
-1374 -1394 0
-1374 -1395 0
-1374 -1396 0
-1374 -1397 0
-1374 -1398 0
-1374 -1399 0
-1374 -1400 0
-1374 -1401 0
-1374 -1402 0
-1374 -1403 0
-1374 -1404 0
-1374 -1405 0
-1374 -1406 0
-1374 -1407 0
-1374 -1408 0
-1374 -1409 0
-1374 -1410 0
-1374 -1411 0
-1374 -1412 0
-1374 -1413 0
-1374 -1414 0
-1374 -1415 0
-1374 -1416 0
-1374 -1417 0
-1374 -1418 0
-1374 -1419 0
-1374 -1420 0
-1374 -1421 0
-1374 -1422 0
-1374 -1423 0
-1374 -1424 0
-1374 -1425 0
-1374 -1426 0
-1374 -1427 0
-1374 -1428 0
-1374 -1429 0
-1374 -1430 0
-1374 -1431 0
-1374 -1432 0
-1374 -1433 0
-1374 -1434 0
-1374 -1435 0
-1374 -1436 0
-1374 -1437 0
-1374 -1438 0
-1374 -1439 0
-1374 -1440 0
-1374 -1441 0
-1374 -1442 0
-1374 -1443 0
-1374 -1444 0
-1374 -1445 0
-1374 -1446 0
-1375 -1376 0
-1375 -1377 0
-1375 -1378 0
-1375 -1379 0
-1375 -1380 0
-1375 -1381 0
-1375 -1382 0
-1375 -1383 0
-1375 -1384 0
-1375 -1385 0
-1375 -1386 0
-1375 -1387 0
-1375 -1388 0
-1375 -1389 0
-1375 -1390 0
-1375 -1391 0
-1375 -1392 0
-1375 -1393 0
-1375 -1394 0
-1375 -1395 0
-1375 -1396 0
-1375 -1397 0
-1375 -1398 0
-1375 -1399 0
-1375 -1400 0
-1375 -1401 0
-1375 -1402 0
-1375 -1403 0
-1375 -1404 0
-1375 -1405 0
-1375 -1406 0
-1375 -1407 0
-1375 -1408 0
-1375 -1409 0
-1375 -1410 0
-1375 -1411 0
-1375 -1412 0
-1375 -1413 0
-1375 -1414 0
-1375 -1415 0
-1375 -1416 0
-1375 -1417 0
-1375 -1418 0
-1375 -1419 0
-1375 -1420 0
-1375 -1421 0
-1375 -1422 0
-1375 -1423 0
-1375 -1424 0
-1375 -1425 0
-1375 -1426 0
-1375 -1427 0
-1375 -1428 0
-1375 -1429 0
-1375 -1430 0
-1375 -1431 0
-1375 -1432 0
-1375 -1433 0
-1375 -1434 0
-1375 -1435 0
-1375 -1436 0
-1375 -1437 0
-1375 -1438 0
-1375 -1439 0
-1375 -1440 0
-1375 -1441 0
-1375 -1442 0
-1375 -1443 0
-1375 -1444 0
-1375 -1445 0
-1375 -1446 0
-1376 -1377 0
-1376 -1378 0
-1376 -1379 0
-1376 -1380 0
-1376 -1381 0
-1376 -1382 0
-1376 -1383 0
-1376 -1384 0
-1376 -1385 0
-1376 -1386 0
-1376 -1387 0
-1376 -1388 0
-1376 -1389 0
-1376 -1390 0
-1376 -1391 0
-1376 -1392 0
-1376 -1393 0
-1376 -1394 0
-1376 -1395 0
-1376 -1396 0
-1376 -1397 0
-1376 -1398 0
-1376 -1399 0
-1376 -1400 0
-1376 -1401 0
-1376 -1402 0
-1376 -1403 0
-1376 -1404 0
-1376 -1405 0
-1376 -1406 0
-1376 -1407 0
-1376 -1408 0
-1376 -1409 0
-1376 -1410 0
-1376 -1411 0
-1376 -1412 0
-1376 -1413 0
-1376 -1414 0
-1376 -1415 0
-1376 -1416 0
-1376 -1417 0
-1376 -1418 0
-1376 -1419 0
-1376 -1420 0
-1376 -1421 0
-1376 -1422 0
-1376 -1423 0
-1376 -1424 0
-1376 -1425 0
-1376 -1426 0
-1376 -1427 0
-1376 -1428 0
-1376 -1429 0
-1376 -1430 0
-1376 -1431 0
-1376 -1432 0
-1376 -1433 0
-1376 -1434 0
-1376 -1435 0
-1376 -1436 0
-1376 -1437 0
-1376 -1438 0
-1376 -1439 0
-1376 -1440 0
-1376 -1441 0
-1376 -1442 0
-1376 -1443 0
-1376 -1444 0
-1376 -1445 0
-1376 -1446 0
-1377 -1378 0
-1377 -1379 0
-1377 -1380 0
-1377 -1381 0
-1377 -1382 0
-1377 -1383 0
-1377 -1384 0
-1377 -1385 0
-1377 -1386 0
-1377 -1387 0
-1377 -1388 0
-1377 -1389 0
-1377 -1390 0
-1377 -1391 0
-1377 -1392 0
-1377 -1393 0
-1377 -1394 0
-1377 -1395 0
-1377 -1396 0
-1377 -1397 0
-1377 -1398 0
-1377 -1399 0
-1377 -1400 0
-1377 -1401 0
-1377 -1402 0
-1377 -1403 0
-1377 -1404 0
-1377 -1405 0
-1377 -1406 0
-1377 -1407 0
-1377 -1408 0
-1377 -1409 0
-1377 -1410 0
-1377 -1411 0
-1377 -1412 0
-1377 -1413 0
-1377 -1414 0
-1377 -1415 0
-1377 -1416 0
-1377 -1417 0
-1377 -1418 0
-1377 -1419 0
-1377 -1420 0
-1377 -1421 0
-1377 -1422 0
-1377 -1423 0
-1377 -1424 0
-1377 -1425 0
-1377 -1426 0
-1377 -1427 0
-1377 -1428 0
-1377 -1429 0
-1377 -1430 0
-1377 -1431 0
-1377 -1432 0
-1377 -1433 0
-1377 -1434 0
-1377 -1435 0
-1377 -1436 0
-1377 -1437 0
-1377 -1438 0
-1377 -1439 0
-1377 -1440 0
-1377 -1441 0
-1377 -1442 0
-1377 -1443 0
-1377 -1444 0
-1377 -1445 0
-1377 -1446 0
-1378 -1379 0
-1378 -1380 0
-1378 -1381 0
-1378 -1382 0
-1378 -1383 0
-1378 -1384 0
-1378 -1385 0
-1378 -1386 0
-1378 -1387 0
-1378 -1388 0
-1378 -1389 0
-1378 -1390 0
-1378 -1391 0
-1378 -1392 0
-1378 -1393 0
-1378 -1394 0
-1378 -1395 0
-1378 -1396 0
-1378 -1397 0
-1378 -1398 0
-1378 -1399 0
-1378 -1400 0
-1378 -1401 0
-1378 -1402 0
-1378 -1403 0
-1378 -1404 0
-1378 -1405 0
-1378 -1406 0
-1378 -1407 0
-1378 -1408 0
-1378 -1409 0
-1378 -1410 0
-1378 -1411 0
-1378 -1412 0
-1378 -1413 0
-1378 -1414 0
-1378 -1415 0
-1378 -1416 0
-1378 -1417 0
-1378 -1418 0
-1378 -1419 0
-1378 -1420 0
-1378 -1421 0
-1378 -1422 0
-1378 -1423 0
-1378 -1424 0
-1378 -1425 0
-1378 -1426 0
-1378 -1427 0
-1378 -1428 0
-1378 -1429 0
-1378 -1430 0
-1378 -1431 0
-1378 -1432 0
-1378 -1433 0
-1378 -1434 0
-1378 -1435 0
-1378 -1436 0
-1378 -1437 0
-1378 -1438 0
-1378 -1439 0
-1378 -1440 0
-1378 -1441 0
-1378 -1442 0
-1378 -1443 0
-1378 -1444 0
-1378 -1445 0
-1378 -1446 0
-1379 -1380 0
-1379 -1381 0
-1379 -1382 0
-1379 -1383 0
-1379 -1384 0
-1379 -1385 0
-1379 -1386 0
-1379 -1387 0
-1379 -1388 0
-1379 -1389 0
-1379 -1390 0
-1379 -1391 0
-1379 -1392 0
-1379 -1393 0
-1379 -1394 0
-1379 -1395 0
-1379 -1396 0
-1379 -1397 0
-1379 -1398 0
-1379 -1399 0
-1379 -1400 0
-1379 -1401 0
-1379 -1402 0
-1379 -1403 0
-1379 -1404 0
-1379 -1405 0
-1379 -1406 0
-1379 -1407 0
-1379 -1408 0
-1379 -1409 0
-1379 -1410 0
-1379 -1411 0
-1379 -1412 0
-1379 -1413 0
-1379 -1414 0
-1379 -1415 0
-1379 -1416 0
-1379 -1417 0
-1379 -1418 0
-1379 -1419 0
-1379 -1420 0
-1379 -1421 0
-1379 -1422 0
-1379 -1423 0
-1379 -1424 0
-1379 -1425 0
-1379 -1426 0
-1379 -1427 0
-1379 -1428 0
-1379 -1429 0
-1379 -1430 0
-1379 -1431 0
-1379 -1432 0
-1379 -1433 0
-1379 -1434 0
-1379 -1435 0
-1379 -1436 0
-1379 -1437 0
-1379 -1438 0
-1379 -1439 0
-1379 -1440 0
-1379 -1441 0
-1379 -1442 0
-1379 -1443 0
-1379 -1444 0
-1379 -1445 0
-1379 -1446 0
-1380 -1381 0
-1380 -1382 0
-1380 -1383 0
-1380 -1384 0
-1380 -1385 0
-1380 -1386 0
-1380 -1387 0
-1380 -1388 0
-1380 -1389 0
-1380 -1390 0
-1380 -1391 0
-1380 -1392 0
-1380 -1393 0
-1380 -1394 0
-1380 -1395 0
-1380 -1396 0
-1380 -1397 0
-1380 -1398 0
-1380 -1399 0
-1380 -1400 0
-1380 -1401 0
-1380 -1402 0
-1380 -1403 0
-1380 -1404 0
-1380 -1405 0
-1380 -1406 0
-1380 -1407 0
-1380 -1408 0
-1380 -1409 0
-1380 -1410 0
-1380 -1411 0
-1380 -1412 0
-1380 -1413 0
-1380 -1414 0
-1380 -1415 0
-1380 -1416 0
-1380 -1417 0
-1380 -1418 0
-1380 -1419 0
-1380 -1420 0
-1380 -1421 0
-1380 -1422 0
-1380 -1423 0
-1380 -1424 0
-1380 -1425 0
-1380 -1426 0
-1380 -1427 0
-1380 -1428 0
-1380 -1429 0
-1380 -1430 0
-1380 -1431 0
-1380 -1432 0
-1380 -1433 0
-1380 -1434 0
-1380 -1435 0
-1380 -1436 0
-1380 -1437 0
-1380 -1438 0
-1380 -1439 0
-1380 -1440 0
-1380 -1441 0
-1380 -1442 0
-1380 -1443 0
-1380 -1444 0
-1380 -1445 0
-1380 -1446 0
-1381 -1382 0
-1381 -1383 0
-1381 -1384 0
-1381 -1385 0
-1381 -1386 0
-1381 -1387 0
-1381 -1388 0
-1381 -1389 0
-1381 -1390 0
-1381 -1391 0
-1381 -1392 0
-1381 -1393 0
-1381 -1394 0
-1381 -1395 0
-1381 -1396 0
-1381 -1397 0
-1381 -1398 0
-1381 -1399 0
-1381 -1400 0
-1381 -1401 0
-1381 -1402 0
-1381 -1403 0
-1381 -1404 0
-1381 -1405 0
-1381 -1406 0
-1381 -1407 0
-1381 -1408 0
-1381 -1409 0
-1381 -1410 0
-1381 -1411 0
-1381 -1412 0
-1381 -1413 0
-1381 -1414 0
-1381 -1415 0
-1381 -1416 0
-1381 -1417 0
-1381 -1418 0
-1381 -1419 0
-1381 -1420 0
-1381 -1421 0
-1381 -1422 0
-1381 -1423 0
-1381 -1424 0
-1381 -1425 0
-1381 -1426 0
-1381 -1427 0
-1381 -1428 0
-1381 -1429 0
-1381 -1430 0
-1381 -1431 0
-1381 -1432 0
-1381 -1433 0
-1381 -1434 0
-1381 -1435 0
-1381 -1436 0
-1381 -1437 0
-1381 -1438 0
-1381 -1439 0
-1381 -1440 0
-1381 -1441 0
-1381 -1442 0
-1381 -1443 0
-1381 -1444 0
-1381 -1445 0
-1381 -1446 0
-1382 -1383 0
-1382 -1384 0
-1382 -1385 0
-1382 -1386 0
-1382 -1387 0
-1382 -1388 0
-1382 -1389 0
-1382 -1390 0
-1382 -1391 0
-1382 -1392 0
-1382 -1393 0
-1382 -1394 0
-1382 -1395 0
-1382 -1396 0
-1382 -1397 0
-1382 -1398 0
-1382 -1399 0
-1382 -1400 0
-1382 -1401 0
-1382 -1402 0
-1382 -1403 0
-1382 -1404 0
-1382 -1405 0
-1382 -1406 0
-1382 -1407 0
-1382 -1408 0
-1382 -1409 0
-1382 -1410 0
-1382 -1411 0
-1382 -1412 0
-1382 -1413 0
-1382 -1414 0
-1382 -1415 0
-1382 -1416 0
-1382 -1417 0
-1382 -1418 0
-1382 -1419 0
-1382 -1420 0
-1382 -1421 0
-1382 -1422 0
-1382 -1423 0
-1382 -1424 0
-1382 -1425 0
-1382 -1426 0
-1382 -1427 0
-1382 -1428 0
-1382 -1429 0
-1382 -1430 0
-1382 -1431 0
-1382 -1432 0
-1382 -1433 0
-1382 -1434 0
-1382 -1435 0
-1382 -1436 0
-1382 -1437 0
-1382 -1438 0
-1382 -1439 0
-1382 -1440 0
-1382 -1441 0
-1382 -1442 0
-1382 -1443 0
-1382 -1444 0
-1382 -1445 0
-1382 -1446 0
-1383 -1384 0
-1383 -1385 0
-1383 -1386 0
-1383 -1387 0
-1383 -1388 0
-1383 -1389 0
-1383 -1390 0
-1383 -1391 0
-1383 -1392 0
-1383 -1393 0
-1383 -1394 0
-1383 -1395 0
-1383 -1396 0
-1383 -1397 0
-1383 -1398 0
-1383 -1399 0
-1383 -1400 0
-1383 -1401 0
-1383 -1402 0
-1383 -1403 0
-1383 -1404 0
-1383 -1405 0
-1383 -1406 0
-1383 -1407 0
-1383 -1408 0
-1383 -1409 0
-1383 -1410 0
-1383 -1411 0
-1383 -1412 0
-1383 -1413 0
-1383 -1414 0
-1383 -1415 0
-1383 -1416 0
-1383 -1417 0
-1383 -1418 0
-1383 -1419 0
-1383 -1420 0
-1383 -1421 0
-1383 -1422 0
-1383 -1423 0
-1383 -1424 0
-1383 -1425 0
-1383 -1426 0
-1383 -1427 0
-1383 -1428 0
-1383 -1429 0
-1383 -1430 0
-1383 -1431 0
-1383 -1432 0
-1383 -1433 0
-1383 -1434 0
-1383 -1435 0
-1383 -1436 0
-1383 -1437 0
-1383 -1438 0
-1383 -1439 0
-1383 -1440 0
-1383 -1441 0
-1383 -1442 0
-1383 -1443 0
-1383 -1444 0
-1383 -1445 0
-1383 -1446 0
-1384 -1385 0
-1384 -1386 0
-1384 -1387 0
-1384 -1388 0
-1384 -1389 0
-1384 -1390 0
-1384 -1391 0
-1384 -1392 0
-1384 -1393 0
-1384 -1394 0
-1384 -1395 0
-1384 -1396 0
-1384 -1397 0
-1384 -1398 0
-1384 -1399 0
-1384 -1400 0
-1384 -1401 0
-1384 -1402 0
-1384 -1403 0
-1384 -1404 0
-1384 -1405 0
-1384 -1406 0
-1384 -1407 0
-1384 -1408 0
-1384 -1409 0
-1384 -1410 0
-1384 -1411 0
-1384 -1412 0
-1384 -1413 0
-1384 -1414 0
-1384 -1415 0
-1384 -1416 0
-1384 -1417 0
-1384 -1418 0
-1384 -1419 0
-1384 -1420 0
-1384 -1421 0
-1384 -1422 0
-1384 -1423 0
-1384 -1424 0
-1384 -1425 0
-1384 -1426 0
-1384 -1427 0
-1384 -1428 0
-1384 -1429 0
-1384 -1430 0
-1384 -1431 0
-1384 -1432 0
-1384 -1433 0
-1384 -1434 0
-1384 -1435 0
-1384 -1436 0
-1384 -1437 0
-1384 -1438 0
-1384 -1439 0
-1384 -1440 0
-1384 -1441 0
-1384 -1442 0
-1384 -1443 0
-1384 -1444 0
-1384 -1445 0
-1384 -1446 0
-1385 -1386 0
-1385 -1387 0
-1385 -1388 0
-1385 -1389 0
-1385 -1390 0
-1385 -1391 0
-1385 -1392 0
-1385 -1393 0
-1385 -1394 0
-1385 -1395 0
-1385 -1396 0
-1385 -1397 0
-1385 -1398 0
-1385 -1399 0
-1385 -1400 0
-1385 -1401 0
-1385 -1402 0
-1385 -1403 0
-1385 -1404 0
-1385 -1405 0
-1385 -1406 0
-1385 -1407 0
-1385 -1408 0
-1385 -1409 0
-1385 -1410 0
-1385 -1411 0
-1385 -1412 0
-1385 -1413 0
-1385 -1414 0
-1385 -1415 0
-1385 -1416 0
-1385 -1417 0
-1385 -1418 0
-1385 -1419 0
-1385 -1420 0
-1385 -1421 0
-1385 -1422 0
-1385 -1423 0
-1385 -1424 0
-1385 -1425 0
-1385 -1426 0
-1385 -1427 0
-1385 -1428 0
-1385 -1429 0
-1385 -1430 0
-1385 -1431 0
-1385 -1432 0
-1385 -1433 0
-1385 -1434 0
-1385 -1435 0
-1385 -1436 0
-1385 -1437 0
-1385 -1438 0
-1385 -1439 0
-1385 -1440 0
-1385 -1441 0
-1385 -1442 0
-1385 -1443 0
-1385 -1444 0
-1385 -1445 0
-1385 -1446 0
-1386 -1387 0
-1386 -1388 0
-1386 -1389 0
-1386 -1390 0
-1386 -1391 0
-1386 -1392 0
-1386 -1393 0
-1386 -1394 0
-1386 -1395 0
-1386 -1396 0
-1386 -1397 0
-1386 -1398 0
-1386 -1399 0
-1386 -1400 0
-1386 -1401 0
-1386 -1402 0
-1386 -1403 0
-1386 -1404 0
-1386 -1405 0
-1386 -1406 0
-1386 -1407 0
-1386 -1408 0
-1386 -1409 0
-1386 -1410 0
-1386 -1411 0
-1386 -1412 0
-1386 -1413 0
-1386 -1414 0
-1386 -1415 0
-1386 -1416 0
-1386 -1417 0
-1386 -1418 0
-1386 -1419 0
-1386 -1420 0
-1386 -1421 0
-1386 -1422 0
-1386 -1423 0
-1386 -1424 0
-1386 -1425 0
-1386 -1426 0
-1386 -1427 0
-1386 -1428 0
-1386 -1429 0
-1386 -1430 0
-1386 -1431 0
-1386 -1432 0
-1386 -1433 0
-1386 -1434 0
-1386 -1435 0
-1386 -1436 0
-1386 -1437 0
-1386 -1438 0
-1386 -1439 0
-1386 -1440 0
-1386 -1441 0
-1386 -1442 0
-1386 -1443 0
-1386 -1444 0
-1386 -1445 0
-1386 -1446 0
-1387 -1388 0
-1387 -1389 0
-1387 -1390 0
-1387 -1391 0
-1387 -1392 0
-1387 -1393 0
-1387 -1394 0
-1387 -1395 0
-1387 -1396 0
-1387 -1397 0
-1387 -1398 0
-1387 -1399 0
-1387 -1400 0
-1387 -1401 0
-1387 -1402 0
-1387 -1403 0
-1387 -1404 0
-1387 -1405 0
-1387 -1406 0
-1387 -1407 0
-1387 -1408 0
-1387 -1409 0
-1387 -1410 0
-1387 -1411 0
-1387 -1412 0
-1387 -1413 0
-1387 -1414 0
-1387 -1415 0
-1387 -1416 0
-1387 -1417 0
-1387 -1418 0
-1387 -1419 0
-1387 -1420 0
-1387 -1421 0
-1387 -1422 0
-1387 -1423 0
-1387 -1424 0
-1387 -1425 0
-1387 -1426 0
-1387 -1427 0
-1387 -1428 0
-1387 -1429 0
-1387 -1430 0
-1387 -1431 0
-1387 -1432 0
-1387 -1433 0
-1387 -1434 0
-1387 -1435 0
-1387 -1436 0
-1387 -1437 0
-1387 -1438 0
-1387 -1439 0
-1387 -1440 0
-1387 -1441 0
-1387 -1442 0
-1387 -1443 0
-1387 -1444 0
-1387 -1445 0
-1387 -1446 0
-1388 -1389 0
-1388 -1390 0
-1388 -1391 0
-1388 -1392 0
-1388 -1393 0
-1388 -1394 0
-1388 -1395 0
-1388 -1396 0
-1388 -1397 0
-1388 -1398 0
-1388 -1399 0
-1388 -1400 0
-1388 -1401 0
-1388 -1402 0
-1388 -1403 0
-1388 -1404 0
-1388 -1405 0
-1388 -1406 0
-1388 -1407 0
-1388 -1408 0
-1388 -1409 0
-1388 -1410 0
-1388 -1411 0
-1388 -1412 0
-1388 -1413 0
-1388 -1414 0
-1388 -1415 0
-1388 -1416 0
-1388 -1417 0
-1388 -1418 0
-1388 -1419 0
-1388 -1420 0
-1388 -1421 0
-1388 -1422 0
-1388 -1423 0
-1388 -1424 0
-1388 -1425 0
-1388 -1426 0
-1388 -1427 0
-1388 -1428 0
-1388 -1429 0
-1388 -1430 0
-1388 -1431 0
-1388 -1432 0
-1388 -1433 0
-1388 -1434 0
-1388 -1435 0
-1388 -1436 0
-1388 -1437 0
-1388 -1438 0
-1388 -1439 0
-1388 -1440 0
-1388 -1441 0
-1388 -1442 0
-1388 -1443 0
-1388 -1444 0
-1388 -1445 0
-1388 -1446 0
-1389 -1390 0
-1389 -1391 0
-1389 -1392 0
-1389 -1393 0
-1389 -1394 0
-1389 -1395 0
-1389 -1396 0
-1389 -1397 0
-1389 -1398 0
-1389 -1399 0
-1389 -1400 0
-1389 -1401 0
-1389 -1402 0
-1389 -1403 0
-1389 -1404 0
-1389 -1405 0
-1389 -1406 0
-1389 -1407 0
-1389 -1408 0
-1389 -1409 0
-1389 -1410 0
-1389 -1411 0
-1389 -1412 0
-1389 -1413 0
-1389 -1414 0
-1389 -1415 0
-1389 -1416 0
-1389 -1417 0
-1389 -1418 0
-1389 -1419 0
-1389 -1420 0
-1389 -1421 0
-1389 -1422 0
-1389 -1423 0
-1389 -1424 0
-1389 -1425 0
-1389 -1426 0
-1389 -1427 0
-1389 -1428 0
-1389 -1429 0
-1389 -1430 0
-1389 -1431 0
-1389 -1432 0
-1389 -1433 0
-1389 -1434 0
-1389 -1435 0
-1389 -1436 0
-1389 -1437 0
-1389 -1438 0
-1389 -1439 0
-1389 -1440 0
-1389 -1441 0
-1389 -1442 0
-1389 -1443 0
-1389 -1444 0
-1389 -1445 0
-1389 -1446 0
-1390 -1391 0
-1390 -1392 0
-1390 -1393 0
-1390 -1394 0
-1390 -1395 0
-1390 -1396 0
-1390 -1397 0
-1390 -1398 0
-1390 -1399 0
-1390 -1400 0
-1390 -1401 0
-1390 -1402 0
-1390 -1403 0
-1390 -1404 0
-1390 -1405 0
-1390 -1406 0
-1390 -1407 0
-1390 -1408 0
-1390 -1409 0
-1390 -1410 0
-1390 -1411 0
-1390 -1412 0
-1390 -1413 0
-1390 -1414 0
-1390 -1415 0
-1390 -1416 0
-1390 -1417 0
-1390 -1418 0
-1390 -1419 0
-1390 -1420 0
-1390 -1421 0
-1390 -1422 0
-1390 -1423 0
-1390 -1424 0
-1390 -1425 0
-1390 -1426 0
-1390 -1427 0
-1390 -1428 0
-1390 -1429 0
-1390 -1430 0
-1390 -1431 0
-1390 -1432 0
-1390 -1433 0
-1390 -1434 0
-1390 -1435 0
-1390 -1436 0
-1390 -1437 0
-1390 -1438 0
-1390 -1439 0
-1390 -1440 0
-1390 -1441 0
-1390 -1442 0
-1390 -1443 0
-1390 -1444 0
-1390 -1445 0
-1390 -1446 0
-1391 -1392 0
-1391 -1393 0
-1391 -1394 0
-1391 -1395 0
-1391 -1396 0
-1391 -1397 0
-1391 -1398 0
-1391 -1399 0
-1391 -1400 0
-1391 -1401 0
-1391 -1402 0
-1391 -1403 0
-1391 -1404 0
-1391 -1405 0
-1391 -1406 0
-1391 -1407 0
-1391 -1408 0
-1391 -1409 0
-1391 -1410 0
-1391 -1411 0
-1391 -1412 0
-1391 -1413 0
-1391 -1414 0
-1391 -1415 0
-1391 -1416 0
-1391 -1417 0
-1391 -1418 0
-1391 -1419 0
-1391 -1420 0
-1391 -1421 0
-1391 -1422 0
-1391 -1423 0
-1391 -1424 0
-1391 -1425 0
-1391 -1426 0
-1391 -1427 0
-1391 -1428 0
-1391 -1429 0
-1391 -1430 0
-1391 -1431 0
-1391 -1432 0
-1391 -1433 0
-1391 -1434 0
-1391 -1435 0
-1391 -1436 0
-1391 -1437 0
-1391 -1438 0
-1391 -1439 0
-1391 -1440 0
-1391 -1441 0
-1391 -1442 0
-1391 -1443 0
-1391 -1444 0
-1391 -1445 0
-1391 -1446 0
-1392 -1393 0
-1392 -1394 0
-1392 -1395 0
-1392 -1396 0
-1392 -1397 0
-1392 -1398 0
-1392 -1399 0
-1392 -1400 0
-1392 -1401 0
-1392 -1402 0
-1392 -1403 0
-1392 -1404 0
-1392 -1405 0
-1392 -1406 0
-1392 -1407 0
-1392 -1408 0
-1392 -1409 0
-1392 -1410 0
-1392 -1411 0
-1392 -1412 0
-1392 -1413 0
-1392 -1414 0
-1392 -1415 0
-1392 -1416 0
-1392 -1417 0
-1392 -1418 0
-1392 -1419 0
-1392 -1420 0
-1392 -1421 0
-1392 -1422 0
-1392 -1423 0
-1392 -1424 0
-1392 -1425 0
-1392 -1426 0
-1392 -1427 0
-1392 -1428 0
-1392 -1429 0
-1392 -1430 0
-1392 -1431 0
-1392 -1432 0
-1392 -1433 0
-1392 -1434 0
-1392 -1435 0
-1392 -1436 0
-1392 -1437 0
-1392 -1438 0
-1392 -1439 0
-1392 -1440 0
-1392 -1441 0
-1392 -1442 0
-1392 -1443 0
-1392 -1444 0
-1392 -1445 0
-1392 -1446 0
-1393 -1394 0
-1393 -1395 0
-1393 -1396 0
-1393 -1397 0
-1393 -1398 0
-1393 -1399 0
-1393 -1400 0
-1393 -1401 0
-1393 -1402 0
-1393 -1403 0
-1393 -1404 0
-1393 -1405 0
-1393 -1406 0
-1393 -1407 0
-1393 -1408 0
-1393 -1409 0
-1393 -1410 0
-1393 -1411 0
-1393 -1412 0
-1393 -1413 0
-1393 -1414 0
-1393 -1415 0
-1393 -1416 0
-1393 -1417 0
-1393 -1418 0
-1393 -1419 0
-1393 -1420 0
-1393 -1421 0
-1393 -1422 0
-1393 -1423 0
-1393 -1424 0
-1393 -1425 0
-1393 -1426 0
-1393 -1427 0
-1393 -1428 0
-1393 -1429 0
-1393 -1430 0
-1393 -1431 0
-1393 -1432 0
-1393 -1433 0
-1393 -1434 0
-1393 -1435 0
-1393 -1436 0
-1393 -1437 0
-1393 -1438 0
-1393 -1439 0
-1393 -1440 0
-1393 -1441 0
-1393 -1442 0
-1393 -1443 0
-1393 -1444 0
-1393 -1445 0
-1393 -1446 0
-1394 -1395 0
-1394 -1396 0
-1394 -1397 0
-1394 -1398 0
-1394 -1399 0
-1394 -1400 0
-1394 -1401 0
-1394 -1402 0
-1394 -1403 0
-1394 -1404 0
-1394 -1405 0
-1394 -1406 0
-1394 -1407 0
-1394 -1408 0
-1394 -1409 0
-1394 -1410 0
-1394 -1411 0
-1394 -1412 0
-1394 -1413 0
-1394 -1414 0
-1394 -1415 0
-1394 -1416 0
-1394 -1417 0
-1394 -1418 0
-1394 -1419 0
-1394 -1420 0
-1394 -1421 0
-1394 -1422 0
-1394 -1423 0
-1394 -1424 0
-1394 -1425 0
-1394 -1426 0
-1394 -1427 0
-1394 -1428 0
-1394 -1429 0
-1394 -1430 0
-1394 -1431 0
-1394 -1432 0
-1394 -1433 0
-1394 -1434 0
-1394 -1435 0
-1394 -1436 0
-1394 -1437 0
-1394 -1438 0
-1394 -1439 0
-1394 -1440 0
-1394 -1441 0
-1394 -1442 0
-1394 -1443 0
-1394 -1444 0
-1394 -1445 0
-1394 -1446 0
-1395 -1396 0
-1395 -1397 0
-1395 -1398 0
-1395 -1399 0
-1395 -1400 0
-1395 -1401 0
-1395 -1402 0
-1395 -1403 0
-1395 -1404 0
-1395 -1405 0
-1395 -1406 0
-1395 -1407 0
-1395 -1408 0
-1395 -1409 0
-1395 -1410 0
-1395 -1411 0
-1395 -1412 0
-1395 -1413 0
-1395 -1414 0
-1395 -1415 0
-1395 -1416 0
-1395 -1417 0
-1395 -1418 0
-1395 -1419 0
-1395 -1420 0
-1395 -1421 0
-1395 -1422 0
-1395 -1423 0
-1395 -1424 0
-1395 -1425 0
-1395 -1426 0
-1395 -1427 0
-1395 -1428 0
-1395 -1429 0
-1395 -1430 0
-1395 -1431 0
-1395 -1432 0
-1395 -1433 0
-1395 -1434 0
-1395 -1435 0
-1395 -1436 0
-1395 -1437 0
-1395 -1438 0
-1395 -1439 0
-1395 -1440 0
-1395 -1441 0
-1395 -1442 0
-1395 -1443 0
-1395 -1444 0
-1395 -1445 0
-1395 -1446 0
-1396 -1397 0
-1396 -1398 0
-1396 -1399 0
-1396 -1400 0
-1396 -1401 0
-1396 -1402 0
-1396 -1403 0
-1396 -1404 0
-1396 -1405 0
-1396 -1406 0
-1396 -1407 0
-1396 -1408 0
-1396 -1409 0
-1396 -1410 0
-1396 -1411 0
-1396 -1412 0
-1396 -1413 0
-1396 -1414 0
-1396 -1415 0
-1396 -1416 0
-1396 -1417 0
-1396 -1418 0
-1396 -1419 0
-1396 -1420 0
-1396 -1421 0
-1396 -1422 0
-1396 -1423 0
-1396 -1424 0
-1396 -1425 0
-1396 -1426 0
-1396 -1427 0
-1396 -1428 0
-1396 -1429 0
-1396 -1430 0
-1396 -1431 0
-1396 -1432 0
-1396 -1433 0
-1396 -1434 0
-1396 -1435 0
-1396 -1436 0
-1396 -1437 0
-1396 -1438 0
-1396 -1439 0
-1396 -1440 0
-1396 -1441 0
-1396 -1442 0
-1396 -1443 0
-1396 -1444 0
-1396 -1445 0
-1396 -1446 0
-1397 -1398 0
-1397 -1399 0
-1397 -1400 0
-1397 -1401 0
-1397 -1402 0
-1397 -1403 0
-1397 -1404 0
-1397 -1405 0
-1397 -1406 0
-1397 -1407 0
-1397 -1408 0
-1397 -1409 0
-1397 -1410 0
-1397 -1411 0
-1397 -1412 0
-1397 -1413 0
-1397 -1414 0
-1397 -1415 0
-1397 -1416 0
-1397 -1417 0
-1397 -1418 0
-1397 -1419 0
-1397 -1420 0
-1397 -1421 0
-1397 -1422 0
-1397 -1423 0
-1397 -1424 0
-1397 -1425 0
-1397 -1426 0
-1397 -1427 0
-1397 -1428 0
-1397 -1429 0
-1397 -1430 0
-1397 -1431 0
-1397 -1432 0
-1397 -1433 0
-1397 -1434 0
-1397 -1435 0
-1397 -1436 0
-1397 -1437 0
-1397 -1438 0
-1397 -1439 0
-1397 -1440 0
-1397 -1441 0
-1397 -1442 0
-1397 -1443 0
-1397 -1444 0
-1397 -1445 0
-1397 -1446 0
-1398 -1399 0
-1398 -1400 0
-1398 -1401 0
-1398 -1402 0
-1398 -1403 0
-1398 -1404 0
-1398 -1405 0
-1398 -1406 0
-1398 -1407 0
-1398 -1408 0
-1398 -1409 0
-1398 -1410 0
-1398 -1411 0
-1398 -1412 0
-1398 -1413 0
-1398 -1414 0
-1398 -1415 0
-1398 -1416 0
-1398 -1417 0
-1398 -1418 0
-1398 -1419 0
-1398 -1420 0
-1398 -1421 0
-1398 -1422 0
-1398 -1423 0
-1398 -1424 0
-1398 -1425 0
-1398 -1426 0
-1398 -1427 0
-1398 -1428 0
-1398 -1429 0
-1398 -1430 0
-1398 -1431 0
-1398 -1432 0
-1398 -1433 0
-1398 -1434 0
-1398 -1435 0
-1398 -1436 0
-1398 -1437 0
-1398 -1438 0
-1398 -1439 0
-1398 -1440 0
-1398 -1441 0
-1398 -1442 0
-1398 -1443 0
-1398 -1444 0
-1398 -1445 0
-1398 -1446 0
-1399 -1400 0
-1399 -1401 0
-1399 -1402 0
-1399 -1403 0
-1399 -1404 0
-1399 -1405 0
-1399 -1406 0
-1399 -1407 0
-1399 -1408 0
-1399 -1409 0
-1399 -1410 0
-1399 -1411 0
-1399 -1412 0
-1399 -1413 0
-1399 -1414 0
-1399 -1415 0
-1399 -1416 0
-1399 -1417 0
-1399 -1418 0
-1399 -1419 0
-1399 -1420 0
-1399 -1421 0
-1399 -1422 0
-1399 -1423 0
-1399 -1424 0
-1399 -1425 0
-1399 -1426 0
-1399 -1427 0
-1399 -1428 0
-1399 -1429 0
-1399 -1430 0
-1399 -1431 0
-1399 -1432 0
-1399 -1433 0
-1399 -1434 0
-1399 -1435 0
-1399 -1436 0
-1399 -1437 0
-1399 -1438 0
-1399 -1439 0
-1399 -1440 0
-1399 -1441 0
-1399 -1442 0
-1399 -1443 0
-1399 -1444 0
-1399 -1445 0
-1399 -1446 0
-1400 -1401 0
-1400 -1402 0
-1400 -1403 0
-1400 -1404 0
-1400 -1405 0
-1400 -1406 0
-1400 -1407 0
-1400 -1408 0
-1400 -1409 0
-1400 -1410 0
-1400 -1411 0
-1400 -1412 0
-1400 -1413 0
-1400 -1414 0
-1400 -1415 0
-1400 -1416 0
-1400 -1417 0
-1400 -1418 0
-1400 -1419 0
-1400 -1420 0
-1400 -1421 0
-1400 -1422 0
-1400 -1423 0
-1400 -1424 0
-1400 -1425 0
-1400 -1426 0
-1400 -1427 0
-1400 -1428 0
-1400 -1429 0
-1400 -1430 0
-1400 -1431 0
-1400 -1432 0
-1400 -1433 0
-1400 -1434 0
-1400 -1435 0
-1400 -1436 0
-1400 -1437 0
-1400 -1438 0
-1400 -1439 0
-1400 -1440 0
-1400 -1441 0
-1400 -1442 0
-1400 -1443 0
-1400 -1444 0
-1400 -1445 0
-1400 -1446 0
-1401 -1402 0
-1401 -1403 0
-1401 -1404 0
-1401 -1405 0
-1401 -1406 0
-1401 -1407 0
-1401 -1408 0
-1401 -1409 0
-1401 -1410 0
-1401 -1411 0
-1401 -1412 0
-1401 -1413 0
-1401 -1414 0
-1401 -1415 0
-1401 -1416 0
-1401 -1417 0
-1401 -1418 0
-1401 -1419 0
-1401 -1420 0
-1401 -1421 0
-1401 -1422 0
-1401 -1423 0
-1401 -1424 0
-1401 -1425 0
-1401 -1426 0
-1401 -1427 0
-1401 -1428 0
-1401 -1429 0
-1401 -1430 0
-1401 -1431 0
-1401 -1432 0
-1401 -1433 0
-1401 -1434 0
-1401 -1435 0
-1401 -1436 0
-1401 -1437 0
-1401 -1438 0
-1401 -1439 0
-1401 -1440 0
-1401 -1441 0
-1401 -1442 0
-1401 -1443 0
-1401 -1444 0
-1401 -1445 0
-1401 -1446 0
-1402 -1403 0
-1402 -1404 0
-1402 -1405 0
-1402 -1406 0
-1402 -1407 0
-1402 -1408 0
-1402 -1409 0
-1402 -1410 0
-1402 -1411 0
-1402 -1412 0
-1402 -1413 0
-1402 -1414 0
-1402 -1415 0
-1402 -1416 0
-1402 -1417 0
-1402 -1418 0
-1402 -1419 0
-1402 -1420 0
-1402 -1421 0
-1402 -1422 0
-1402 -1423 0
-1402 -1424 0
-1402 -1425 0
-1402 -1426 0
-1402 -1427 0
-1402 -1428 0
-1402 -1429 0
-1402 -1430 0
-1402 -1431 0
-1402 -1432 0
-1402 -1433 0
-1402 -1434 0
-1402 -1435 0
-1402 -1436 0
-1402 -1437 0
-1402 -1438 0
-1402 -1439 0
-1402 -1440 0
-1402 -1441 0
-1402 -1442 0
-1402 -1443 0
-1402 -1444 0
-1402 -1445 0
-1402 -1446 0
-1403 -1404 0
-1403 -1405 0
-1403 -1406 0
-1403 -1407 0
-1403 -1408 0
-1403 -1409 0
-1403 -1410 0
-1403 -1411 0
-1403 -1412 0
-1403 -1413 0
-1403 -1414 0
-1403 -1415 0
-1403 -1416 0
-1403 -1417 0
-1403 -1418 0
-1403 -1419 0
-1403 -1420 0
-1403 -1421 0
-1403 -1422 0
-1403 -1423 0
-1403 -1424 0
-1403 -1425 0
-1403 -1426 0
-1403 -1427 0
-1403 -1428 0
-1403 -1429 0
-1403 -1430 0
-1403 -1431 0
-1403 -1432 0
-1403 -1433 0
-1403 -1434 0
-1403 -1435 0
-1403 -1436 0
-1403 -1437 0
-1403 -1438 0
-1403 -1439 0
-1403 -1440 0
-1403 -1441 0
-1403 -1442 0
-1403 -1443 0
-1403 -1444 0
-1403 -1445 0
-1403 -1446 0
-1404 -1405 0
-1404 -1406 0
-1404 -1407 0
-1404 -1408 0
-1404 -1409 0
-1404 -1410 0
-1404 -1411 0
-1404 -1412 0
-1404 -1413 0
-1404 -1414 0
-1404 -1415 0
-1404 -1416 0
-1404 -1417 0
-1404 -1418 0
-1404 -1419 0
-1404 -1420 0
-1404 -1421 0
-1404 -1422 0
-1404 -1423 0
-1404 -1424 0
-1404 -1425 0
-1404 -1426 0
-1404 -1427 0
-1404 -1428 0
-1404 -1429 0
-1404 -1430 0
-1404 -1431 0
-1404 -1432 0
-1404 -1433 0
-1404 -1434 0
-1404 -1435 0
-1404 -1436 0
-1404 -1437 0
-1404 -1438 0
-1404 -1439 0
-1404 -1440 0
-1404 -1441 0
-1404 -1442 0
-1404 -1443 0
-1404 -1444 0
-1404 -1445 0
-1404 -1446 0
-1405 -1406 0
-1405 -1407 0
-1405 -1408 0
-1405 -1409 0
-1405 -1410 0
-1405 -1411 0
-1405 -1412 0
-1405 -1413 0
-1405 -1414 0
-1405 -1415 0
-1405 -1416 0
-1405 -1417 0
-1405 -1418 0
-1405 -1419 0
-1405 -1420 0
-1405 -1421 0
-1405 -1422 0
-1405 -1423 0
-1405 -1424 0
-1405 -1425 0
-1405 -1426 0
-1405 -1427 0
-1405 -1428 0
-1405 -1429 0
-1405 -1430 0
-1405 -1431 0
-1405 -1432 0
-1405 -1433 0
-1405 -1434 0
-1405 -1435 0
-1405 -1436 0
-1405 -1437 0
-1405 -1438 0
-1405 -1439 0
-1405 -1440 0
-1405 -1441 0
-1405 -1442 0
-1405 -1443 0
-1405 -1444 0
-1405 -1445 0
-1405 -1446 0
-1406 -1407 0
-1406 -1408 0
-1406 -1409 0
-1406 -1410 0
-1406 -1411 0
-1406 -1412 0
-1406 -1413 0
-1406 -1414 0
-1406 -1415 0
-1406 -1416 0
-1406 -1417 0
-1406 -1418 0
-1406 -1419 0
-1406 -1420 0
-1406 -1421 0
-1406 -1422 0
-1406 -1423 0
-1406 -1424 0
-1406 -1425 0
-1406 -1426 0
-1406 -1427 0
-1406 -1428 0
-1406 -1429 0
-1406 -1430 0
-1406 -1431 0
-1406 -1432 0
-1406 -1433 0
-1406 -1434 0
-1406 -1435 0
-1406 -1436 0
-1406 -1437 0
-1406 -1438 0
-1406 -1439 0
-1406 -1440 0
-1406 -1441 0
-1406 -1442 0
-1406 -1443 0
-1406 -1444 0
-1406 -1445 0
-1406 -1446 0
-1407 -1408 0
-1407 -1409 0
-1407 -1410 0
-1407 -1411 0
-1407 -1412 0
-1407 -1413 0
-1407 -1414 0
-1407 -1415 0
-1407 -1416 0
-1407 -1417 0
-1407 -1418 0
-1407 -1419 0
-1407 -1420 0
-1407 -1421 0
-1407 -1422 0
-1407 -1423 0
-1407 -1424 0
-1407 -1425 0
-1407 -1426 0
-1407 -1427 0
-1407 -1428 0
-1407 -1429 0
-1407 -1430 0
-1407 -1431 0
-1407 -1432 0
-1407 -1433 0
-1407 -1434 0
-1407 -1435 0
-1407 -1436 0
-1407 -1437 0
-1407 -1438 0
-1407 -1439 0
-1407 -1440 0
-1407 -1441 0
-1407 -1442 0
-1407 -1443 0
-1407 -1444 0
-1407 -1445 0
-1407 -1446 0
-1408 -1409 0
-1408 -1410 0
-1408 -1411 0
-1408 -1412 0
-1408 -1413 0
-1408 -1414 0
-1408 -1415 0
-1408 -1416 0
-1408 -1417 0
-1408 -1418 0
-1408 -1419 0
-1408 -1420 0
-1408 -1421 0
-1408 -1422 0
-1408 -1423 0
-1408 -1424 0
-1408 -1425 0
-1408 -1426 0
-1408 -1427 0
-1408 -1428 0
-1408 -1429 0
-1408 -1430 0
-1408 -1431 0
-1408 -1432 0
-1408 -1433 0
-1408 -1434 0
-1408 -1435 0
-1408 -1436 0
-1408 -1437 0
-1408 -1438 0
-1408 -1439 0
-1408 -1440 0
-1408 -1441 0
-1408 -1442 0
-1408 -1443 0
-1408 -1444 0
-1408 -1445 0
-1408 -1446 0
-1409 -1410 0
-1409 -1411 0
-1409 -1412 0
-1409 -1413 0
-1409 -1414 0
-1409 -1415 0
-1409 -1416 0
-1409 -1417 0
-1409 -1418 0
-1409 -1419 0
-1409 -1420 0
-1409 -1421 0
-1409 -1422 0
-1409 -1423 0
-1409 -1424 0
-1409 -1425 0
-1409 -1426 0
-1409 -1427 0
-1409 -1428 0
-1409 -1429 0
-1409 -1430 0
-1409 -1431 0
-1409 -1432 0
-1409 -1433 0
-1409 -1434 0
-1409 -1435 0
-1409 -1436 0
-1409 -1437 0
-1409 -1438 0
-1409 -1439 0
-1409 -1440 0
-1409 -1441 0
-1409 -1442 0
-1409 -1443 0
-1409 -1444 0
-1409 -1445 0
-1409 -1446 0
-1410 -1411 0
-1410 -1412 0
-1410 -1413 0
-1410 -1414 0
-1410 -1415 0
-1410 -1416 0
-1410 -1417 0
-1410 -1418 0
-1410 -1419 0
-1410 -1420 0
-1410 -1421 0
-1410 -1422 0
-1410 -1423 0
-1410 -1424 0
-1410 -1425 0
-1410 -1426 0
-1410 -1427 0
-1410 -1428 0
-1410 -1429 0
-1410 -1430 0
-1410 -1431 0
-1410 -1432 0
-1410 -1433 0
-1410 -1434 0
-1410 -1435 0
-1410 -1436 0
-1410 -1437 0
-1410 -1438 0
-1410 -1439 0
-1410 -1440 0
-1410 -1441 0
-1410 -1442 0
-1410 -1443 0
-1410 -1444 0
-1410 -1445 0
-1410 -1446 0
-1411 -1412 0
-1411 -1413 0
-1411 -1414 0
-1411 -1415 0
-1411 -1416 0
-1411 -1417 0
-1411 -1418 0
-1411 -1419 0
-1411 -1420 0
-1411 -1421 0
-1411 -1422 0
-1411 -1423 0
-1411 -1424 0
-1411 -1425 0
-1411 -1426 0
-1411 -1427 0
-1411 -1428 0
-1411 -1429 0
-1411 -1430 0
-1411 -1431 0
-1411 -1432 0
-1411 -1433 0
-1411 -1434 0
-1411 -1435 0
-1411 -1436 0
-1411 -1437 0
-1411 -1438 0
-1411 -1439 0
-1411 -1440 0
-1411 -1441 0
-1411 -1442 0
-1411 -1443 0
-1411 -1444 0
-1411 -1445 0
-1411 -1446 0
-1412 -1413 0
-1412 -1414 0
-1412 -1415 0
-1412 -1416 0
-1412 -1417 0
-1412 -1418 0
-1412 -1419 0
-1412 -1420 0
-1412 -1421 0
-1412 -1422 0
-1412 -1423 0
-1412 -1424 0
-1412 -1425 0
-1412 -1426 0
-1412 -1427 0
-1412 -1428 0
-1412 -1429 0
-1412 -1430 0
-1412 -1431 0
-1412 -1432 0
-1412 -1433 0
-1412 -1434 0
-1412 -1435 0
-1412 -1436 0
-1412 -1437 0
-1412 -1438 0
-1412 -1439 0
-1412 -1440 0
-1412 -1441 0
-1412 -1442 0
-1412 -1443 0
-1412 -1444 0
-1412 -1445 0
-1412 -1446 0
-1413 -1414 0
-1413 -1415 0
-1413 -1416 0
-1413 -1417 0
-1413 -1418 0
-1413 -1419 0
-1413 -1420 0
-1413 -1421 0
-1413 -1422 0
-1413 -1423 0
-1413 -1424 0
-1413 -1425 0
-1413 -1426 0
-1413 -1427 0
-1413 -1428 0
-1413 -1429 0
-1413 -1430 0
-1413 -1431 0
-1413 -1432 0
-1413 -1433 0
-1413 -1434 0
-1413 -1435 0
-1413 -1436 0
-1413 -1437 0
-1413 -1438 0
-1413 -1439 0
-1413 -1440 0
-1413 -1441 0
-1413 -1442 0
-1413 -1443 0
-1413 -1444 0
-1413 -1445 0
-1413 -1446 0
-1414 -1415 0
-1414 -1416 0
-1414 -1417 0
-1414 -1418 0
-1414 -1419 0
-1414 -1420 0
-1414 -1421 0
-1414 -1422 0
-1414 -1423 0
-1414 -1424 0
-1414 -1425 0
-1414 -1426 0
-1414 -1427 0
-1414 -1428 0
-1414 -1429 0
-1414 -1430 0
-1414 -1431 0
-1414 -1432 0
-1414 -1433 0
-1414 -1434 0
-1414 -1435 0
-1414 -1436 0
-1414 -1437 0
-1414 -1438 0
-1414 -1439 0
-1414 -1440 0
-1414 -1441 0
-1414 -1442 0
-1414 -1443 0
-1414 -1444 0
-1414 -1445 0
-1414 -1446 0
-1415 -1416 0
-1415 -1417 0
-1415 -1418 0
-1415 -1419 0
-1415 -1420 0
-1415 -1421 0
-1415 -1422 0
-1415 -1423 0
-1415 -1424 0
-1415 -1425 0
-1415 -1426 0
-1415 -1427 0
-1415 -1428 0
-1415 -1429 0
-1415 -1430 0
-1415 -1431 0
-1415 -1432 0
-1415 -1433 0
-1415 -1434 0
-1415 -1435 0
-1415 -1436 0
-1415 -1437 0
-1415 -1438 0
-1415 -1439 0
-1415 -1440 0
-1415 -1441 0
-1415 -1442 0
-1415 -1443 0
-1415 -1444 0
-1415 -1445 0
-1415 -1446 0
-1416 -1417 0
-1416 -1418 0
-1416 -1419 0
-1416 -1420 0
-1416 -1421 0
-1416 -1422 0
-1416 -1423 0
-1416 -1424 0
-1416 -1425 0
-1416 -1426 0
-1416 -1427 0
-1416 -1428 0
-1416 -1429 0
-1416 -1430 0
-1416 -1431 0
-1416 -1432 0
-1416 -1433 0
-1416 -1434 0
-1416 -1435 0
-1416 -1436 0
-1416 -1437 0
-1416 -1438 0
-1416 -1439 0
-1416 -1440 0
-1416 -1441 0
-1416 -1442 0
-1416 -1443 0
-1416 -1444 0
-1416 -1445 0
-1416 -1446 0
-1417 -1418 0
-1417 -1419 0
-1417 -1420 0
-1417 -1421 0
-1417 -1422 0
-1417 -1423 0
-1417 -1424 0
-1417 -1425 0
-1417 -1426 0
-1417 -1427 0
-1417 -1428 0
-1417 -1429 0
-1417 -1430 0
-1417 -1431 0
-1417 -1432 0
-1417 -1433 0
-1417 -1434 0
-1417 -1435 0
-1417 -1436 0
-1417 -1437 0
-1417 -1438 0
-1417 -1439 0
-1417 -1440 0
-1417 -1441 0
-1417 -1442 0
-1417 -1443 0
-1417 -1444 0
-1417 -1445 0
-1417 -1446 0
-1418 -1419 0
-1418 -1420 0
-1418 -1421 0
-1418 -1422 0
-1418 -1423 0
-1418 -1424 0
-1418 -1425 0
-1418 -1426 0
-1418 -1427 0
-1418 -1428 0
-1418 -1429 0
-1418 -1430 0
-1418 -1431 0
-1418 -1432 0
-1418 -1433 0
-1418 -1434 0
-1418 -1435 0
-1418 -1436 0
-1418 -1437 0
-1418 -1438 0
-1418 -1439 0
-1418 -1440 0
-1418 -1441 0
-1418 -1442 0
-1418 -1443 0
-1418 -1444 0
-1418 -1445 0
-1418 -1446 0
-1419 -1420 0
-1419 -1421 0
-1419 -1422 0
-1419 -1423 0
-1419 -1424 0
-1419 -1425 0
-1419 -1426 0
-1419 -1427 0
-1419 -1428 0
-1419 -1429 0
-1419 -1430 0
-1419 -1431 0
-1419 -1432 0
-1419 -1433 0
-1419 -1434 0
-1419 -1435 0
-1419 -1436 0
-1419 -1437 0
-1419 -1438 0
-1419 -1439 0
-1419 -1440 0
-1419 -1441 0
-1419 -1442 0
-1419 -1443 0
-1419 -1444 0
-1419 -1445 0
-1419 -1446 0
-1420 -1421 0
-1420 -1422 0
-1420 -1423 0
-1420 -1424 0
-1420 -1425 0
-1420 -1426 0
-1420 -1427 0
-1420 -1428 0
-1420 -1429 0
-1420 -1430 0
-1420 -1431 0
-1420 -1432 0
-1420 -1433 0
-1420 -1434 0
-1420 -1435 0
-1420 -1436 0
-1420 -1437 0
-1420 -1438 0
-1420 -1439 0
-1420 -1440 0
-1420 -1441 0
-1420 -1442 0
-1420 -1443 0
-1420 -1444 0
-1420 -1445 0
-1420 -1446 0
-1421 -1422 0
-1421 -1423 0
-1421 -1424 0
-1421 -1425 0
-1421 -1426 0
-1421 -1427 0
-1421 -1428 0
-1421 -1429 0
-1421 -1430 0
-1421 -1431 0
-1421 -1432 0
-1421 -1433 0
-1421 -1434 0
-1421 -1435 0
-1421 -1436 0
-1421 -1437 0
-1421 -1438 0
-1421 -1439 0
-1421 -1440 0
-1421 -1441 0
-1421 -1442 0
-1421 -1443 0
-1421 -1444 0
-1421 -1445 0
-1421 -1446 0
-1422 -1423 0
-1422 -1424 0
-1422 -1425 0
-1422 -1426 0
-1422 -1427 0
-1422 -1428 0
-1422 -1429 0
-1422 -1430 0
-1422 -1431 0
-1422 -1432 0
-1422 -1433 0
-1422 -1434 0
-1422 -1435 0
-1422 -1436 0
-1422 -1437 0
-1422 -1438 0
-1422 -1439 0
-1422 -1440 0
-1422 -1441 0
-1422 -1442 0
-1422 -1443 0
-1422 -1444 0
-1422 -1445 0
-1422 -1446 0
-1423 -1424 0
-1423 -1425 0
-1423 -1426 0
-1423 -1427 0
-1423 -1428 0
-1423 -1429 0
-1423 -1430 0
-1423 -1431 0
-1423 -1432 0
-1423 -1433 0
-1423 -1434 0
-1423 -1435 0
-1423 -1436 0
-1423 -1437 0
-1423 -1438 0
-1423 -1439 0
-1423 -1440 0
-1423 -1441 0
-1423 -1442 0
-1423 -1443 0
-1423 -1444 0
-1423 -1445 0
-1423 -1446 0
-1424 -1425 0
-1424 -1426 0
-1424 -1427 0
-1424 -1428 0
-1424 -1429 0
-1424 -1430 0
-1424 -1431 0
-1424 -1432 0
-1424 -1433 0
-1424 -1434 0
-1424 -1435 0
-1424 -1436 0
-1424 -1437 0
-1424 -1438 0
-1424 -1439 0
-1424 -1440 0
-1424 -1441 0
-1424 -1442 0
-1424 -1443 0
-1424 -1444 0
-1424 -1445 0
-1424 -1446 0
-1425 -1426 0
-1425 -1427 0
-1425 -1428 0
-1425 -1429 0
-1425 -1430 0
-1425 -1431 0
-1425 -1432 0
-1425 -1433 0
-1425 -1434 0
-1425 -1435 0
-1425 -1436 0
-1425 -1437 0
-1425 -1438 0
-1425 -1439 0
-1425 -1440 0
-1425 -1441 0
-1425 -1442 0
-1425 -1443 0
-1425 -1444 0
-1425 -1445 0
-1425 -1446 0
-1426 -1427 0
-1426 -1428 0
-1426 -1429 0
-1426 -1430 0
-1426 -1431 0
-1426 -1432 0
-1426 -1433 0
-1426 -1434 0
-1426 -1435 0
-1426 -1436 0
-1426 -1437 0
-1426 -1438 0
-1426 -1439 0
-1426 -1440 0
-1426 -1441 0
-1426 -1442 0
-1426 -1443 0
-1426 -1444 0
-1426 -1445 0
-1426 -1446 0
-1427 -1428 0
-1427 -1429 0
-1427 -1430 0
-1427 -1431 0
-1427 -1432 0
-1427 -1433 0
-1427 -1434 0
-1427 -1435 0
-1427 -1436 0
-1427 -1437 0
-1427 -1438 0
-1427 -1439 0
-1427 -1440 0
-1427 -1441 0
-1427 -1442 0
-1427 -1443 0
-1427 -1444 0
-1427 -1445 0
-1427 -1446 0
-1428 -1429 0
-1428 -1430 0
-1428 -1431 0
-1428 -1432 0
-1428 -1433 0
-1428 -1434 0
-1428 -1435 0
-1428 -1436 0
-1428 -1437 0
-1428 -1438 0
-1428 -1439 0
-1428 -1440 0
-1428 -1441 0
-1428 -1442 0
-1428 -1443 0
-1428 -1444 0
-1428 -1445 0
-1428 -1446 0
-1429 -1430 0
-1429 -1431 0
-1429 -1432 0
-1429 -1433 0
-1429 -1434 0
-1429 -1435 0
-1429 -1436 0
-1429 -1437 0
-1429 -1438 0
-1429 -1439 0
-1429 -1440 0
-1429 -1441 0
-1429 -1442 0
-1429 -1443 0
-1429 -1444 0
-1429 -1445 0
-1429 -1446 0
-1430 -1431 0
-1430 -1432 0
-1430 -1433 0
-1430 -1434 0
-1430 -1435 0
-1430 -1436 0
-1430 -1437 0
-1430 -1438 0
-1430 -1439 0
-1430 -1440 0
-1430 -1441 0
-1430 -1442 0
-1430 -1443 0
-1430 -1444 0
-1430 -1445 0
-1430 -1446 0
-1431 -1432 0
-1431 -1433 0
-1431 -1434 0
-1431 -1435 0
-1431 -1436 0
-1431 -1437 0
-1431 -1438 0
-1431 -1439 0
-1431 -1440 0
-1431 -1441 0
-1431 -1442 0
-1431 -1443 0
-1431 -1444 0
-1431 -1445 0
-1431 -1446 0
-1432 -1433 0
-1432 -1434 0
-1432 -1435 0
-1432 -1436 0
-1432 -1437 0
-1432 -1438 0
-1432 -1439 0
-1432 -1440 0
-1432 -1441 0
-1432 -1442 0
-1432 -1443 0
-1432 -1444 0
-1432 -1445 0
-1432 -1446 0
-1433 -1434 0
-1433 -1435 0
-1433 -1436 0
-1433 -1437 0
-1433 -1438 0
-1433 -1439 0
-1433 -1440 0
-1433 -1441 0
-1433 -1442 0
-1433 -1443 0
-1433 -1444 0
-1433 -1445 0
-1433 -1446 0
-1434 -1435 0
-1434 -1436 0
-1434 -1437 0
-1434 -1438 0
-1434 -1439 0
-1434 -1440 0
-1434 -1441 0
-1434 -1442 0
-1434 -1443 0
-1434 -1444 0
-1434 -1445 0
-1434 -1446 0
-1435 -1436 0
-1435 -1437 0
-1435 -1438 0
-1435 -1439 0
-1435 -1440 0
-1435 -1441 0
-1435 -1442 0
-1435 -1443 0
-1435 -1444 0
-1435 -1445 0
-1435 -1446 0
-1436 -1437 0
-1436 -1438 0
-1436 -1439 0
-1436 -1440 0
-1436 -1441 0
-1436 -1442 0
-1436 -1443 0
-1436 -1444 0
-1436 -1445 0
-1436 -1446 0
-1437 -1438 0
-1437 -1439 0
-1437 -1440 0
-1437 -1441 0
-1437 -1442 0
-1437 -1443 0
-1437 -1444 0
-1437 -1445 0
-1437 -1446 0
-1438 -1439 0
-1438 -1440 0
-1438 -1441 0
-1438 -1442 0
-1438 -1443 0
-1438 -1444 0
-1438 -1445 0
-1438 -1446 0
-1439 -1440 0
-1439 -1441 0
-1439 -1442 0
-1439 -1443 0
-1439 -1444 0
-1439 -1445 0
-1439 -1446 0
-1440 -1441 0
-1440 -1442 0
-1440 -1443 0
-1440 -1444 0
-1440 -1445 0
-1440 -1446 0
-1441 -1442 0
-1441 -1443 0
-1441 -1444 0
-1441 -1445 0
-1441 -1446 0
-1442 -1443 0
-1442 -1444 0
-1442 -1445 0
-1442 -1446 0
-1443 -1444 0
-1443 -1445 0
-1443 -1446 0
-1444 -1445 0
-1444 -1446 0
-1445 -1446 0
-1363 593 0
-1363 741 0
-1363 -563 0
-1363 -564 0
-1363 -565 0
-1363 -566 0
-1363 -567 0
-1363 -581 763 0
-1363 -581 -646 0
-1363 -581 -670 0
-1363 -581 -694 0
-1363 -581 -556 -578 0
-1363 -582 764 0
-1363 -582 -647 0
-1363 -582 -671 0
-1363 -582 -695 0
-1363 -582 -556 -579 0
-1363 -583 765 0
-1363 -583 -648 0
-1363 -583 -672 0
-1363 -583 -696 0
-1363 -583 -556 -580 0
-1363 -584 0
-1364 593 0
-1364 742 0
-1364 -562 0
-1364 -564 0
-1364 -565 0
-1364 -566 0
-1364 -567 0
-1364 -581 763 0
-1364 -581 -650 0
-1364 -581 -674 0
-1364 -581 -698 0
-1364 -581 -557 -578 0
-1364 -582 764 0
-1364 -582 -651 0
-1364 -582 -675 0
-1364 -582 -699 0
-1364 -582 -557 -579 0
-1364 -583 765 0
-1364 -583 -652 0
-1364 -583 -676 0
-1364 -583 -700 0
-1364 -583 -557 -580 0
-1364 -584 0
-1365 593 0
-1365 743 0
-1365 -562 0
-1365 -563 0
-1365 -565 0
-1365 -566 0
-1365 -567 0
-1365 -581 763 0
-1365 -581 -654 0
-1365 -581 -678 0
-1365 -581 -702 0
-1365 -581 -558 -578 0
-1365 -582 764 0
-1365 -582 -655 0
-1365 -582 -679 0
-1365 -582 -703 0
-1365 -582 -558 -579 0
-1365 -583 765 0
-1365 -583 -656 0
-1365 -583 -680 0
-1365 -583 -704 0
-1365 -583 -558 -580 0
-1365 -584 0
-1366 593 0
-1366 744 0
-1366 -562 0
-1366 -563 0
-1366 -564 0
-1366 -566 0
-1366 -567 0
-1366 -581 763 0
-1366 -581 -658 0
-1366 -581 -682 0
-1366 -581 -706 0
-1366 -581 -559 -578 0
-1366 -582 764 0
-1366 -582 -659 0
-1366 -582 -683 0
-1366 -582 -707 0
-1366 -582 -559 -579 0
-1366 -583 765 0
-1366 -583 -660 0
-1366 -583 -684 0
-1366 -583 -708 0
-1366 -583 -559 -580 0
-1366 -584 0
-1367 593 0
-1367 745 0
-1367 -562 0
-1367 -563 0
-1367 -564 0
-1367 -565 0
-1367 -567 0
-1367 -581 763 0
-1367 -581 -662 0
-1367 -581 -686 0
-1367 -581 -710 0
-1367 -581 -560 -578 0
-1367 -582 764 0
-1367 -582 -663 0
-1367 -582 -687 0
-1367 -582 -711 0
-1367 -582 -560 -579 0
-1367 -583 765 0
-1367 -583 -664 0
-1367 -583 -688 0
-1367 -583 -712 0
-1367 -583 -560 -580 0
-1367 -584 0
-1368 593 0
-1368 746 0
-1368 -562 0
-1368 -563 0
-1368 -564 0
-1368 -565 0
-1368 -566 0
-1368 -581 763 0
-1368 -581 -666 0
-1368 -581 -690 0
-1368 -581 -714 0
-1368 -581 -561 -578 0
-1368 -582 764 0
-1368 -582 -667 0
-1368 -582 -691 0
-1368 -582 -715 0
-1368 -582 -561 -579 0
-1368 -583 765 0
-1368 -583 -668 0
-1368 -583 -692 0
-1368 -583 -716 0
-1368 -583 -561 -580 0
-1368 -584 0
-1369 593 0
-1369 741 0
-1369 -569 0
-1369 -570 0
-1369 -571 0
-1369 -572 0
-1369 -585 763 0
-1369 -585 -646 0
-1369 -585 -670 0
-1369 -585 -694 0
-1369 -585 -556 -578 0
-1369 -586 764 0
-1369 -586 -647 0
-1369 -586 -671 0
-1369 -586 -695 0
-1369 -586 -556 -579 0
-1369 -587 765 0
-1369 -587 -648 0
-1369 -587 -672 0
-1369 -587 -696 0
-1369 -587 -556 -580 0
-1369 -588 0
-1370 593 0
-1370 742 0
-1370 -570 0
-1370 -571 0
-1370 -572 0
-1370 -585 763 0
-1370 -585 -650 0
-1370 -585 -674 0
-1370 -585 -698 0
-1370 -585 -557 -578 0
-1370 -586 764 0
-1370 -586 -651 0
-1370 -586 -675 0
-1370 -586 -699 0
-1370 -586 -557 -579 0
-1370 -587 765 0
-1370 -587 -652 0
-1370 -587 -676 0
-1370 -587 -700 0
-1370 -587 -557 -580 0
-1370 -588 0
-1371 593 0
-1371 743 0
-1371 -568 0
-1371 -571 0
-1371 -572 0
-1371 -585 763 0
-1371 -585 -654 0
-1371 -585 -678 0
-1371 -585 -702 0
-1371 -585 -558 -578 0
-1371 -586 764 0
-1371 -586 -655 0
-1371 -586 -679 0
-1371 -586 -703 0
-1371 -586 -558 -579 0
-1371 -587 765 0
-1371 -587 -656 0
-1371 -587 -680 0
-1371 -587 -704 0
-1371 -587 -558 -580 0
-1371 -588 0
-1372 593 0
-1372 744 0
-1372 -568 0
-1372 -569 0
-1372 -572 0
-1372 -585 763 0
-1372 -585 -658 0
-1372 -585 -682 0
-1372 -585 -706 0
-1372 -585 -559 -578 0
-1372 -586 764 0
-1372 -586 -659 0
-1372 -586 -683 0
-1372 -586 -707 0
-1372 -586 -559 -579 0
-1372 -587 765 0
-1372 -587 -660 0
-1372 -587 -684 0
-1372 -587 -708 0
-1372 -587 -559 -580 0
-1372 -588 0
-1373 593 0
-1373 745 0
-1373 -568 0
-1373 -569 0
-1373 -570 0
-1373 -585 763 0
-1373 -585 -662 0
-1373 -585 -686 0
-1373 -585 -710 0
-1373 -585 -560 -578 0
-1373 -586 764 0
-1373 -586 -663 0
-1373 -586 -687 0
-1373 -586 -711 0
-1373 -586 -560 -579 0
-1373 -587 765 0
-1373 -587 -664 0
-1373 -587 -688 0
-1373 -587 -712 0
-1373 -587 -560 -580 0
-1373 -588 0
-1374 593 0
-1374 746 0
-1374 -568 0
-1374 -569 0
-1374 -570 0
-1374 -571 0
-1374 -585 763 0
-1374 -585 -666 0
-1374 -585 -690 0
-1374 -585 -714 0
-1374 -585 -561 -578 0
-1374 -586 764 0
-1374 -586 -667 0
-1374 -586 -691 0
-1374 -586 -715 0
-1374 -586 -561 -579 0
-1374 -587 765 0
-1374 -587 -668 0
-1374 -587 -692 0
-1374 -587 -716 0
-1374 -587 -561 -580 0
-1374 -588 0
-1375 593 0
-1375 741 0
-1375 -574 0
-1375 -575 0
-1375 -576 0
-1375 -589 763 0
-1375 -589 -646 0
-1375 -589 -670 0
-1375 -589 -694 0
-1375 -589 -556 -578 0
-1375 -590 764 0
-1375 -590 -647 0
-1375 -590 -671 0
-1375 -590 -695 0
-1375 -590 -556 -579 0
-1375 -591 765 0
-1375 -591 -648 0
-1375 -591 -672 0
-1375 -591 -696 0
-1375 -591 -556 -580 0
-1375 -592 0
-1376 593 0
-1376 742 0
-1376 -575 0
-1376 -576 0
-1376 -589 763 0
-1376 -589 -650 0
-1376 -589 -674 0
-1376 -589 -698 0
-1376 -589 -557 -578 0
-1376 -590 764 0
-1376 -590 -651 0
-1376 -590 -675 0
-1376 -590 -699 0
-1376 -590 -557 -579 0
-1376 -591 765 0
-1376 -591 -652 0
-1376 -591 -676 0
-1376 -591 -700 0
-1376 -591 -557 -580 0
-1376 -592 0
-1377 593 0
-1377 743 0
-1377 -576 0
-1377 -589 763 0
-1377 -589 -654 0
-1377 -589 -678 0
-1377 -589 -702 0
-1377 -589 -558 -578 0
-1377 -590 764 0
-1377 -590 -655 0
-1377 -590 -679 0
-1377 -590 -703 0
-1377 -590 -558 -579 0
-1377 -591 765 0
-1377 -591 -656 0
-1377 -591 -680 0
-1377 -591 -704 0
-1377 -591 -558 -580 0
-1377 -592 0
-1378 593 0
-1378 744 0
-1378 -573 0
-1378 -589 763 0
-1378 -589 -658 0
-1378 -589 -682 0
-1378 -589 -706 0
-1378 -589 -559 -578 0
-1378 -590 764 0
-1378 -590 -659 0
-1378 -590 -683 0
-1378 -590 -707 0
-1378 -590 -559 -579 0
-1378 -591 765 0
-1378 -591 -660 0
-1378 -591 -684 0
-1378 -591 -708 0
-1378 -591 -559 -580 0
-1378 -592 0
-1379 593 0
-1379 745 0
-1379 -573 0
-1379 -574 0
-1379 -589 763 0
-1379 -589 -662 0
-1379 -589 -686 0
-1379 -589 -710 0
-1379 -589 -560 -578 0
-1379 -590 764 0
-1379 -590 -663 0
-1379 -590 -687 0
-1379 -590 -711 0
-1379 -590 -560 -579 0
-1379 -591 765 0
-1379 -591 -664 0
-1379 -591 -688 0
-1379 -591 -712 0
-1379 -591 -560 -580 0
-1379 -592 0
-1380 593 0
-1380 746 0
-1380 -573 0
-1380 -574 0
-1380 -575 0
-1380 -589 763 0
-1380 -589 -666 0
-1380 -589 -690 0
-1380 -589 -714 0
-1380 -589 -561 -578 0
-1380 -590 764 0
-1380 -590 -667 0
-1380 -590 -691 0
-1380 -590 -715 0
-1380 -590 -561 -579 0
-1380 -591 765 0
-1380 -591 -668 0
-1380 -591 -692 0
-1380 -591 -716 0
-1380 -591 -561 -580 0
-1380 -592 0
-1381 593 0
-1381 741 0
-1381 762 0
-1381 -645 0
-1381 -669 0
-1381 -693 0
-1381 -556 -577 0
-1382 593 0
-1382 742 0
-1382 762 0
-1382 -649 0
-1382 -673 0
-1382 -697 0
-1382 -557 -577 0
-1383 593 0
-1383 743 0
-1383 762 0
-1383 -653 0
-1383 -677 0
-1383 -701 0
-1383 -558 -577 0
-1384 593 0
-1384 744 0
-1384 762 0
-1384 -657 0
-1384 -681 0
-1384 -705 0
-1384 -559 -577 0
-1385 593 0
-1385 745 0
-1385 762 0
-1385 -661 0
-1385 -685 0
-1385 -709 0
-1385 -560 -577 0
-1386 593 0
-1386 746 0
-1386 762 0
-1386 -665 0
-1386 -689 0
-1386 -713 0
-1386 -561 -577 0
-1387 594 0
-1387 747 0
-1387 -557 0
-1387 -558 0
-1387 -559 0
-1387 -560 0
-1387 -561 0
-1387 -577 767 0
-1387 -577 -622 0
-1387 -577 -670 0
-1387 -577 -694 0
-1387 -577 -562 -582 0
-1387 -578 768 0
-1387 -578 -623 0
-1387 -578 -671 0
-1387 -578 -695 0
-1387 -578 -562 -583 0
-1387 -579 769 0
-1387 -579 -624 0
-1387 -579 -672 0
-1387 -579 -696 0
-1387 -579 -562 -584 0
-1387 -580 0
-1388 594 0
-1388 748 0
-1388 -556 0
-1388 -558 0
-1388 -559 0
-1388 -560 0
-1388 -561 0
-1388 -577 767 0
-1388 -577 -626 0
-1388 -577 -674 0
-1388 -577 -698 0
-1388 -577 -563 -582 0
-1388 -578 768 0
-1388 -578 -627 0
-1388 -578 -675 0
-1388 -578 -699 0
-1388 -578 -563 -583 0
-1388 -579 769 0
-1388 -579 -628 0
-1388 -579 -676 0
-1388 -579 -700 0
-1388 -579 -563 -584 0
-1388 -580 0
-1389 594 0
-1389 749 0
-1389 -556 0
-1389 -557 0
-1389 -559 0
-1389 -560 0
-1389 -561 0
-1389 -577 767 0
-1389 -577 -630 0
-1389 -577 -678 0
-1389 -577 -702 0
-1389 -577 -564 -582 0
-1389 -578 768 0
-1389 -578 -631 0
-1389 -578 -679 0
-1389 -578 -703 0
-1389 -578 -564 -583 0
-1389 -579 769 0
-1389 -579 -632 0
-1389 -579 -680 0
-1389 -579 -704 0
-1389 -579 -564 -584 0
-1389 -580 0
-1390 594 0
-1390 750 0
-1390 -556 0
-1390 -557 0
-1390 -558 0
-1390 -560 0
-1390 -561 0
-1390 -577 767 0
-1390 -577 -634 0
-1390 -577 -682 0
-1390 -577 -706 0
-1390 -577 -565 -582 0
-1390 -578 768 0
-1390 -578 -635 0
-1390 -578 -683 0
-1390 -578 -707 0
-1390 -578 -565 -583 0
-1390 -579 769 0
-1390 -579 -636 0
-1390 -579 -684 0
-1390 -579 -708 0
-1390 -579 -565 -584 0
-1390 -580 0
-1391 594 0
-1391 751 0
-1391 -556 0
-1391 -557 0
-1391 -558 0
-1391 -559 0
-1391 -561 0
-1391 -577 767 0
-1391 -577 -638 0
-1391 -577 -686 0
-1391 -577 -710 0
-1391 -577 -566 -582 0
-1391 -578 768 0
-1391 -578 -639 0
-1391 -578 -687 0
-1391 -578 -711 0
-1391 -578 -566 -583 0
-1391 -579 769 0
-1391 -579 -640 0
-1391 -579 -688 0
-1391 -579 -712 0
-1391 -579 -566 -584 0
-1391 -580 0
-1392 594 0
-1392 752 0
-1392 -556 0
-1392 -557 0
-1392 -558 0
-1392 -559 0
-1392 -560 0
-1392 -577 767 0
-1392 -577 -642 0
-1392 -577 -690 0
-1392 -577 -714 0
-1392 -577 -567 -582 0
-1392 -578 768 0
-1392 -578 -643 0
-1392 -578 -691 0
-1392 -578 -715 0
-1392 -578 -567 -583 0
-1392 -579 769 0
-1392 -579 -644 0
-1392 -579 -692 0
-1392 -579 -716 0
-1392 -579 -567 -584 0
-1392 -580 0
-1393 594 0
-1393 747 0
-1393 -569 0
-1393 -570 0
-1393 -571 0
-1393 -572 0
-1393 -585 767 0
-1393 -585 -622 0
-1393 -585 -670 0
-1393 -585 -694 0
-1393 -585 -562 -582 0
-1393 -586 768 0
-1393 -586 -623 0
-1393 -586 -671 0
-1393 -586 -695 0
-1393 -586 -562 -583 0
-1393 -587 769 0
-1393 -587 -624 0
-1393 -587 -672 0
-1393 -587 -696 0
-1393 -587 -562 -584 0
-1393 -588 0
-1394 594 0
-1394 748 0
-1394 -570 0
-1394 -571 0
-1394 -572 0
-1394 -585 767 0
-1394 -585 -626 0
-1394 -585 -674 0
-1394 -585 -698 0
-1394 -585 -563 -582 0
-1394 -586 768 0
-1394 -586 -627 0
-1394 -586 -675 0
-1394 -586 -699 0
-1394 -586 -563 -583 0
-1394 -587 769 0
-1394 -587 -628 0
-1394 -587 -676 0
-1394 -587 -700 0
-1394 -587 -563 -584 0
-1394 -588 0
-1395 594 0
-1395 749 0
-1395 -568 0
-1395 -571 0
-1395 -572 0
-1395 -585 767 0
-1395 -585 -630 0
-1395 -585 -678 0
-1395 -585 -702 0
-1395 -585 -564 -582 0
-1395 -586 768 0
-1395 -586 -631 0
-1395 -586 -679 0
-1395 -586 -703 0
-1395 -586 -564 -583 0
-1395 -587 769 0
-1395 -587 -632 0
-1395 -587 -680 0
-1395 -587 -704 0
-1395 -587 -564 -584 0
-1395 -588 0
-1396 594 0
-1396 750 0
-1396 -568 0
-1396 -569 0
-1396 -572 0
-1396 -585 767 0
-1396 -585 -634 0
-1396 -585 -682 0
-1396 -585 -706 0
-1396 -585 -565 -582 0
-1396 -586 768 0
-1396 -586 -635 0
-1396 -586 -683 0
-1396 -586 -707 0
-1396 -586 -565 -583 0
-1396 -587 769 0
-1396 -587 -636 0
-1396 -587 -684 0
-1396 -587 -708 0
-1396 -587 -565 -584 0
-1396 -588 0
-1397 594 0
-1397 751 0
-1397 -568 0
-1397 -569 0
-1397 -570 0
-1397 -585 767 0
-1397 -585 -638 0
-1397 -585 -686 0
-1397 -585 -710 0
-1397 -585 -566 -582 0
-1397 -586 768 0
-1397 -586 -639 0
-1397 -586 -687 0
-1397 -586 -711 0
-1397 -586 -566 -583 0
-1397 -587 769 0
-1397 -587 -640 0
-1397 -587 -688 0
-1397 -587 -712 0
-1397 -587 -566 -584 0
-1397 -588 0
-1398 594 0
-1398 752 0
-1398 -568 0
-1398 -569 0
-1398 -570 0
-1398 -571 0
-1398 -585 767 0
-1398 -585 -642 0
-1398 -585 -690 0
-1398 -585 -714 0
-1398 -585 -567 -582 0
-1398 -586 768 0
-1398 -586 -643 0
-1398 -586 -691 0
-1398 -586 -715 0
-1398 -586 -567 -583 0
-1398 -587 769 0
-1398 -587 -644 0
-1398 -587 -692 0
-1398 -587 -716 0
-1398 -587 -567 -584 0
-1398 -588 0
-1399 594 0
-1399 747 0
-1399 -574 0
-1399 -575 0
-1399 -576 0
-1399 -589 767 0
-1399 -589 -622 0
-1399 -589 -670 0
-1399 -589 -694 0
-1399 -589 -562 -582 0
-1399 -590 768 0
-1399 -590 -623 0
-1399 -590 -671 0
-1399 -590 -695 0
-1399 -590 -562 -583 0
-1399 -591 769 0
-1399 -591 -624 0
-1399 -591 -672 0
-1399 -591 -696 0
-1399 -591 -562 -584 0
-1399 -592 0
-1400 594 0
-1400 748 0
-1400 -575 0
-1400 -576 0
-1400 -589 767 0
-1400 -589 -626 0
-1400 -589 -674 0
-1400 -589 -698 0
-1400 -589 -563 -582 0
-1400 -590 768 0
-1400 -590 -627 0
-1400 -590 -675 0
-1400 -590 -699 0
-1400 -590 -563 -583 0
-1400 -591 769 0
-1400 -591 -628 0
-1400 -591 -676 0
-1400 -591 -700 0
-1400 -591 -563 -584 0
-1400 -592 0
-1401 594 0
-1401 749 0
-1401 -576 0
-1401 -589 767 0
-1401 -589 -630 0
-1401 -589 -678 0
-1401 -589 -702 0
-1401 -589 -564 -582 0
-1401 -590 768 0
-1401 -590 -631 0
-1401 -590 -679 0
-1401 -590 -703 0
-1401 -590 -564 -583 0
-1401 -591 769 0
-1401 -591 -632 0
-1401 -591 -680 0
-1401 -591 -704 0
-1401 -591 -564 -584 0
-1401 -592 0
-1402 594 0
-1402 750 0
-1402 -573 0
-1402 -589 767 0
-1402 -589 -634 0
-1402 -589 -682 0
-1402 -589 -706 0
-1402 -589 -565 -582 0
-1402 -590 768 0
-1402 -590 -635 0
-1402 -590 -683 0
-1402 -590 -707 0
-1402 -590 -565 -583 0
-1402 -591 769 0
-1402 -591 -636 0
-1402 -591 -684 0
-1402 -591 -708 0
-1402 -591 -565 -584 0
-1402 -592 0
-1403 594 0
-1403 751 0
-1403 -573 0
-1403 -574 0
-1403 -589 767 0
-1403 -589 -638 0
-1403 -589 -686 0
-1403 -589 -710 0
-1403 -589 -566 -582 0
-1403 -590 768 0
-1403 -590 -639 0
-1403 -590 -687 0
-1403 -590 -711 0
-1403 -590 -566 -583 0
-1403 -591 769 0
-1403 -591 -640 0
-1403 -591 -688 0
-1403 -591 -712 0
-1403 -591 -566 -584 0
-1403 -592 0
-1404 594 0
-1404 752 0
-1404 -573 0
-1404 -574 0
-1404 -575 0
-1404 -589 767 0
-1404 -589 -642 0
-1404 -589 -690 0
-1404 -589 -714 0
-1404 -589 -567 -582 0
-1404 -590 768 0
-1404 -590 -643 0
-1404 -590 -691 0
-1404 -590 -715 0
-1404 -590 -567 -583 0
-1404 -591 769 0
-1404 -591 -644 0
-1404 -591 -692 0
-1404 -591 -716 0
-1404 -591 -567 -584 0
-1404 -592 0
-1405 594 0
-1405 747 0
-1405 766 0
-1405 -621 0
-1405 -669 0
-1405 -693 0
-1405 -562 -581 0
-1406 594 0
-1406 748 0
-1406 766 0
-1406 -625 0
-1406 -673 0
-1406 -697 0
-1406 -563 -581 0
-1407 594 0
-1407 749 0
-1407 766 0
-1407 -629 0
-1407 -677 0
-1407 -701 0
-1407 -564 -581 0
-1408 594 0
-1408 750 0
-1408 766 0
-1408 -633 0
-1408 -681 0
-1408 -705 0
-1408 -565 -581 0
-1409 594 0
-1409 751 0
-1409 766 0
-1409 -637 0
-1409 -685 0
-1409 -709 0
-1409 -566 -581 0
-1410 594 0
-1410 752 0
-1410 766 0
-1410 -641 0
-1410 -689 0
-1410 -713 0
-1410 -567 -581 0
-1411 595 0
-1411 753 0
-1411 -558 0
-1411 -559 0
-1411 -560 0
-1411 -561 0
-1411 -577 771 0
-1411 -577 -622 0
-1411 -577 -626 0
-1411 -577 -646 0
-1411 -577 -650 0
-1411 -577 -694 0
-1411 -577 -698 0
-1411 -577 -568 -586 0
-1411 -578 772 0
-1411 -578 -623 0
-1411 -578 -627 0
-1411 -578 -647 0
-1411 -578 -651 0
-1411 -578 -695 0
-1411 -578 -699 0
-1411 -578 -568 -587 0
-1411 -579 773 0
-1411 -579 -624 0
-1411 -579 -628 0
-1411 -579 -648 0
-1411 -579 -652 0
-1411 -579 -696 0
-1411 -579 -700 0
-1411 -579 -568 -588 0
-1411 -580 0
-1412 595 0
-1412 754 0
-1412 -556 0
-1412 -559 0
-1412 -560 0
-1412 -561 0
-1412 -577 771 0
-1412 -577 -626 0
-1412 -577 -630 0
-1412 -577 -650 0
-1412 -577 -654 0
-1412 -577 -698 0
-1412 -577 -702 0
-1412 -577 -569 -586 0
-1412 -578 772 0
-1412 -578 -627 0
-1412 -578 -631 0
-1412 -578 -651 0
-1412 -578 -655 0
-1412 -578 -699 0
-1412 -578 -703 0
-1412 -578 -569 -587 0
-1412 -579 773 0
-1412 -579 -628 0
-1412 -579 -632 0
-1412 -579 -652 0
-1412 -579 -656 0
-1412 -579 -700 0
-1412 -579 -704 0
-1412 -579 -569 -588 0
-1412 -580 0
-1413 595 0
-1413 755 0
-1413 -556 0
-1413 -557 0
-1413 -560 0
-1413 -561 0
-1413 -577 771 0
-1413 -577 -630 0
-1413 -577 -634 0
-1413 -577 -654 0
-1413 -577 -658 0
-1413 -577 -702 0
-1413 -577 -706 0
-1413 -577 -570 -586 0
-1413 -578 772 0
-1413 -578 -631 0
-1413 -578 -635 0
-1413 -578 -655 0
-1413 -578 -659 0
-1413 -578 -703 0
-1413 -578 -707 0
-1413 -578 -570 -587 0
-1413 -579 773 0
-1413 -579 -632 0
-1413 -579 -636 0
-1413 -579 -656 0
-1413 -579 -660 0
-1413 -579 -704 0
-1413 -579 -708 0
-1413 -579 -570 -588 0
-1413 -580 0
-1414 595 0
-1414 756 0
-1414 -556 0
-1414 -557 0
-1414 -558 0
-1414 -561 0
-1414 -577 771 0
-1414 -577 -634 0
-1414 -577 -638 0
-1414 -577 -658 0
-1414 -577 -662 0
-1414 -577 -706 0
-1414 -577 -710 0
-1414 -577 -571 -586 0
-1414 -578 772 0
-1414 -578 -635 0
-1414 -578 -639 0
-1414 -578 -659 0
-1414 -578 -663 0
-1414 -578 -707 0
-1414 -578 -711 0
-1414 -578 -571 -587 0
-1414 -579 773 0
-1414 -579 -636 0
-1414 -579 -640 0
-1414 -579 -660 0
-1414 -579 -664 0
-1414 -579 -708 0
-1414 -579 -712 0
-1414 -579 -571 -588 0
-1414 -580 0
-1415 595 0
-1415 757 0
-1415 -556 0
-1415 -557 0
-1415 -558 0
-1415 -559 0
-1415 -577 771 0
-1415 -577 -638 0
-1415 -577 -642 0
-1415 -577 -662 0
-1415 -577 -666 0
-1415 -577 -710 0
-1415 -577 -714 0
-1415 -577 -572 -586 0
-1415 -578 772 0
-1415 -578 -639 0
-1415 -578 -643 0
-1415 -578 -663 0
-1415 -578 -667 0
-1415 -578 -711 0
-1415 -578 -715 0
-1415 -578 -572 -587 0
-1415 -579 773 0
-1415 -579 -640 0
-1415 -579 -644 0
-1415 -579 -664 0
-1415 -579 -668 0
-1415 -579 -712 0
-1415 -579 -716 0
-1415 -579 -572 -588 0
-1415 -580 0
-1416 595 0
-1416 753 0
-1416 -564 0
-1416 -565 0
-1416 -566 0
-1416 -567 0
-1416 -581 771 0
-1416 -581 -622 0
-1416 -581 -626 0
-1416 -581 -646 0
-1416 -581 -650 0
-1416 -581 -694 0
-1416 -581 -698 0
-1416 -581 -568 -586 0
-1416 -582 772 0
-1416 -582 -623 0
-1416 -582 -627 0
-1416 -582 -647 0
-1416 -582 -651 0
-1416 -582 -695 0
-1416 -582 -699 0
-1416 -582 -568 -587 0
-1416 -583 773 0
-1416 -583 -624 0
-1416 -583 -628 0
-1416 -583 -648 0
-1416 -583 -652 0
-1416 -583 -696 0
-1416 -583 -700 0
-1416 -583 -568 -588 0
-1416 -584 0
-1417 595 0
-1417 754 0
-1417 -562 0
-1417 -565 0
-1417 -566 0
-1417 -567 0
-1417 -581 771 0
-1417 -581 -626 0
-1417 -581 -630 0
-1417 -581 -650 0
-1417 -581 -654 0
-1417 -581 -698 0
-1417 -581 -702 0
-1417 -581 -569 -586 0
-1417 -582 772 0
-1417 -582 -627 0
-1417 -582 -631 0
-1417 -582 -651 0
-1417 -582 -655 0
-1417 -582 -699 0
-1417 -582 -703 0
-1417 -582 -569 -587 0
-1417 -583 773 0
-1417 -583 -628 0
-1417 -583 -632 0
-1417 -583 -652 0
-1417 -583 -656 0
-1417 -583 -700 0
-1417 -583 -704 0
-1417 -583 -569 -588 0
-1417 -584 0
-1418 595 0
-1418 755 0
-1418 -562 0
-1418 -563 0
-1418 -566 0
-1418 -567 0
-1418 -581 771 0
-1418 -581 -630 0
-1418 -581 -634 0
-1418 -581 -654 0
-1418 -581 -658 0
-1418 -581 -702 0
-1418 -581 -706 0
-1418 -581 -570 -586 0
-1418 -582 772 0
-1418 -582 -631 0
-1418 -582 -635 0
-1418 -582 -655 0
-1418 -582 -659 0
-1418 -582 -703 0
-1418 -582 -707 0
-1418 -582 -570 -587 0
-1418 -583 773 0
-1418 -583 -632 0
-1418 -583 -636 0
-1418 -583 -656 0
-1418 -583 -660 0
-1418 -583 -704 0
-1418 -583 -708 0
-1418 -583 -570 -588 0
-1418 -584 0
-1419 595 0
-1419 756 0
-1419 -562 0
-1419 -563 0
-1419 -564 0
-1419 -567 0
-1419 -581 771 0
-1419 -581 -634 0
-1419 -581 -638 0
-1419 -581 -658 0
-1419 -581 -662 0
-1419 -581 -706 0
-1419 -581 -710 0
-1419 -581 -571 -586 0
-1419 -582 772 0
-1419 -582 -635 0
-1419 -582 -639 0
-1419 -582 -659 0
-1419 -582 -663 0
-1419 -582 -707 0
-1419 -582 -711 0
-1419 -582 -571 -587 0
-1419 -583 773 0
-1419 -583 -636 0
-1419 -583 -640 0
-1419 -583 -660 0
-1419 -583 -664 0
-1419 -583 -708 0
-1419 -583 -712 0
-1419 -583 -571 -588 0
-1419 -584 0
-1420 595 0
-1420 757 0
-1420 -562 0
-1420 -563 0
-1420 -564 0
-1420 -565 0
-1420 -581 771 0
-1420 -581 -638 0
-1420 -581 -642 0
-1420 -581 -662 0
-1420 -581 -666 0
-1420 -581 -710 0
-1420 -581 -714 0
-1420 -581 -572 -586 0
-1420 -582 772 0
-1420 -582 -639 0
-1420 -582 -643 0
-1420 -582 -663 0
-1420 -582 -667 0
-1420 -582 -711 0
-1420 -582 -715 0
-1420 -582 -572 -587 0
-1420 -583 773 0
-1420 -583 -640 0
-1420 -583 -644 0
-1420 -583 -664 0
-1420 -583 -668 0
-1420 -583 -712 0
-1420 -583 -716 0
-1420 -583 -572 -588 0
-1420 -584 0
-1421 595 0
-1421 753 0
-1421 -575 0
-1421 -576 0
-1421 -589 771 0
-1421 -589 -622 0
-1421 -589 -626 0
-1421 -589 -646 0
-1421 -589 -650 0
-1421 -589 -694 0
-1421 -589 -698 0
-1421 -589 -568 -586 0
-1421 -590 772 0
-1421 -590 -623 0
-1421 -590 -627 0
-1421 -590 -647 0
-1421 -590 -651 0
-1421 -590 -695 0
-1421 -590 -699 0
-1421 -590 -568 -587 0
-1421 -591 773 0
-1421 -591 -624 0
-1421 -591 -628 0
-1421 -591 -648 0
-1421 -591 -652 0
-1421 -591 -696 0
-1421 -591 -700 0
-1421 -591 -568 -588 0
-1421 -592 0
-1422 595 0
-1422 754 0
-1422 -576 0
-1422 -589 771 0
-1422 -589 -626 0
-1422 -589 -630 0
-1422 -589 -650 0
-1422 -589 -654 0
-1422 -589 -698 0
-1422 -589 -702 0
-1422 -589 -569 -586 0
-1422 -590 772 0
-1422 -590 -627 0
-1422 -590 -631 0
-1422 -590 -651 0
-1422 -590 -655 0
-1422 -590 -699 0
-1422 -590 -703 0
-1422 -590 -569 -587 0
-1422 -591 773 0
-1422 -591 -628 0
-1422 -591 -632 0
-1422 -591 -652 0
-1422 -591 -656 0
-1422 -591 -700 0
-1422 -591 -704 0
-1422 -591 -569 -588 0
-1422 -592 0
-1423 595 0
-1423 755 0
-1423 -589 771 0
-1423 -589 -630 0
-1423 -589 -634 0
-1423 -589 -654 0
-1423 -589 -658 0
-1423 -589 -702 0
-1423 -589 -706 0
-1423 -589 -570 -586 0
-1423 -590 772 0
-1423 -590 -631 0
-1423 -590 -635 0
-1423 -590 -655 0
-1423 -590 -659 0
-1423 -590 -703 0
-1423 -590 -707 0
-1423 -590 -570 -587 0
-1423 -591 773 0
-1423 -591 -632 0
-1423 -591 -636 0
-1423 -591 -656 0
-1423 -591 -660 0
-1423 -591 -704 0
-1423 -591 -708 0
-1423 -591 -570 -588 0
-1423 -592 0
-1424 595 0
-1424 756 0
-1424 -573 0
-1424 -589 771 0
-1424 -589 -634 0
-1424 -589 -638 0
-1424 -589 -658 0
-1424 -589 -662 0
-1424 -589 -706 0
-1424 -589 -710 0
-1424 -589 -571 -586 0
-1424 -590 772 0
-1424 -590 -635 0
-1424 -590 -639 0
-1424 -590 -659 0
-1424 -590 -663 0
-1424 -590 -707 0
-1424 -590 -711 0
-1424 -590 -571 -587 0
-1424 -591 773 0
-1424 -591 -636 0
-1424 -591 -640 0
-1424 -591 -660 0
-1424 -591 -664 0
-1424 -591 -708 0
-1424 -591 -712 0
-1424 -591 -571 -588 0
-1424 -592 0
-1425 595 0
-1425 757 0
-1425 -573 0
-1425 -574 0
-1425 -589 771 0
-1425 -589 -638 0
-1425 -589 -642 0
-1425 -589 -662 0
-1425 -589 -666 0
-1425 -589 -710 0
-1425 -589 -714 0
-1425 -589 -572 -586 0
-1425 -590 772 0
-1425 -590 -639 0
-1425 -590 -643 0
-1425 -590 -663 0
-1425 -590 -667 0
-1425 -590 -711 0
-1425 -590 -715 0
-1425 -590 -572 -587 0
-1425 -591 773 0
-1425 -591 -640 0
-1425 -591 -644 0
-1425 -591 -664 0
-1425 -591 -668 0
-1425 -591 -712 0
-1425 -591 -716 0
-1425 -591 -572 -588 0
-1425 -592 0
-1426 595 0
-1426 753 0
-1426 770 0
-1426 -621 0
-1426 -625 0
-1426 -645 0
-1426 -649 0
-1426 -693 0
-1426 -697 0
-1426 -568 -585 0
-1427 595 0
-1427 754 0
-1427 770 0
-1427 -625 0
-1427 -629 0
-1427 -649 0
-1427 -653 0
-1427 -697 0
-1427 -701 0
-1427 -569 -585 0
-1428 595 0
-1428 755 0
-1428 770 0
-1428 -629 0
-1428 -633 0
-1428 -653 0
-1428 -657 0
-1428 -701 0
-1428 -705 0
-1428 -570 -585 0
-1429 595 0
-1429 756 0
-1429 770 0
-1429 -633 0
-1429 -637 0
-1429 -657 0
-1429 -661 0
-1429 -705 0
-1429 -709 0
-1429 -571 -585 0
-1430 595 0
-1430 757 0
-1430 770 0
-1430 -637 0
-1430 -641 0
-1430 -661 0
-1430 -665 0
-1430 -709 0
-1430 -713 0
-1430 -572 -585 0
-1431 596 0
-1431 758 0
-1431 -559 0
-1431 -560 0
-1431 -561 0
-1431 -577 775 0
-1431 -577 -622 0
-1431 -577 -626 0
-1431 -577 -630 0
-1431 -577 -646 0
-1431 -577 -650 0
-1431 -577 -654 0
-1431 -577 -670 0
-1431 -577 -674 0
-1431 -577 -678 0
-1431 -577 -573 -590 0
-1431 -578 776 0
-1431 -578 -623 0
-1431 -578 -627 0
-1431 -578 -631 0
-1431 -578 -647 0
-1431 -578 -651 0
-1431 -578 -655 0
-1431 -578 -671 0
-1431 -578 -675 0
-1431 -578 -679 0
-1431 -578 -573 -591 0
-1431 -579 777 0
-1431 -579 -624 0
-1431 -579 -628 0
-1431 -579 -632 0
-1431 -579 -648 0
-1431 -579 -652 0
-1431 -579 -656 0
-1431 -579 -672 0
-1431 -579 -676 0
-1431 -579 -680 0
-1431 -579 -573 -592 0
-1431 -580 0
-1432 596 0
-1432 759 0
-1432 -556 0
-1432 -560 0
-1432 -561 0
-1432 -577 775 0
-1432 -577 -626 0
-1432 -577 -630 0
-1432 -577 -634 0
-1432 -577 -650 0
-1432 -577 -654 0
-1432 -577 -658 0
-1432 -577 -674 0
-1432 -577 -678 0
-1432 -577 -682 0
-1432 -577 -574 -590 0
-1432 -578 776 0
-1432 -578 -627 0
-1432 -578 -631 0
-1432 -578 -635 0
-1432 -578 -651 0
-1432 -578 -655 0
-1432 -578 -659 0
-1432 -578 -675 0
-1432 -578 -679 0
-1432 -578 -683 0
-1432 -578 -574 -591 0
-1432 -579 777 0
-1432 -579 -628 0
-1432 -579 -632 0
-1432 -579 -636 0
-1432 -579 -652 0
-1432 -579 -656 0
-1432 -579 -660 0
-1432 -579 -676 0
-1432 -579 -680 0
-1432 -579 -684 0
-1432 -579 -574 -592 0
-1432 -580 0
-1433 596 0
-1433 760 0
-1433 -556 0
-1433 -557 0
-1433 -561 0
-1433 -577 775 0
-1433 -577 -630 0
-1433 -577 -634 0
-1433 -577 -638 0
-1433 -577 -654 0
-1433 -577 -658 0
-1433 -577 -662 0
-1433 -577 -678 0
-1433 -577 -682 0
-1433 -577 -686 0
-1433 -577 -575 -590 0
-1433 -578 776 0
-1433 -578 -631 0
-1433 -578 -635 0
-1433 -578 -639 0
-1433 -578 -655 0
-1433 -578 -659 0
-1433 -578 -663 0
-1433 -578 -679 0
-1433 -578 -683 0
-1433 -578 -687 0
-1433 -578 -575 -591 0
-1433 -579 777 0
-1433 -579 -632 0
-1433 -579 -636 0
-1433 -579 -640 0
-1433 -579 -656 0
-1433 -579 -660 0
-1433 -579 -664 0
-1433 -579 -680 0
-1433 -579 -684 0
-1433 -579 -688 0
-1433 -579 -575 -592 0
-1433 -580 0
-1434 596 0
-1434 761 0
-1434 -556 0
-1434 -557 0
-1434 -558 0
-1434 -577 775 0
-1434 -577 -634 0
-1434 -577 -638 0
-1434 -577 -642 0
-1434 -577 -658 0
-1434 -577 -662 0
-1434 -577 -666 0
-1434 -577 -682 0
-1434 -577 -686 0
-1434 -577 -690 0
-1434 -577 -576 -590 0
-1434 -578 776 0
-1434 -578 -635 0
-1434 -578 -639 0
-1434 -578 -643 0
-1434 -578 -659 0
-1434 -578 -663 0
-1434 -578 -667 0
-1434 -578 -683 0
-1434 -578 -687 0
-1434 -578 -691 0
-1434 -578 -576 -591 0
-1434 -579 777 0
-1434 -579 -636 0
-1434 -579 -640 0
-1434 -579 -644 0
-1434 -579 -660 0
-1434 -579 -664 0
-1434 -579 -668 0
-1434 -579 -684 0
-1434 -579 -688 0
-1434 -579 -692 0
-1434 -579 -576 -592 0
-1434 -580 0
-1435 596 0
-1435 758 0
-1435 -565 0
-1435 -566 0
-1435 -567 0
-1435 -581 775 0
-1435 -581 -622 0
-1435 -581 -626 0
-1435 -581 -630 0
-1435 -581 -646 0
-1435 -581 -650 0
-1435 -581 -654 0
-1435 -581 -670 0
-1435 -581 -674 0
-1435 -581 -678 0
-1435 -581 -573 -590 0
-1435 -582 776 0
-1435 -582 -623 0
-1435 -582 -627 0
-1435 -582 -631 0
-1435 -582 -647 0
-1435 -582 -651 0
-1435 -582 -655 0
-1435 -582 -671 0
-1435 -582 -675 0
-1435 -582 -679 0
-1435 -582 -573 -591 0
-1435 -583 777 0
-1435 -583 -624 0
-1435 -583 -628 0
-1435 -583 -632 0
-1435 -583 -648 0
-1435 -583 -652 0
-1435 -583 -656 0
-1435 -583 -672 0
-1435 -583 -676 0
-1435 -583 -680 0
-1435 -583 -573 -592 0
-1435 -584 0
-1436 596 0
-1436 759 0
-1436 -562 0
-1436 -566 0
-1436 -567 0
-1436 -581 775 0
-1436 -581 -626 0
-1436 -581 -630 0
-1436 -581 -634 0
-1436 -581 -650 0
-1436 -581 -654 0
-1436 -581 -658 0
-1436 -581 -674 0
-1436 -581 -678 0
-1436 -581 -682 0
-1436 -581 -574 -590 0
-1436 -582 776 0
-1436 -582 -627 0
-1436 -582 -631 0
-1436 -582 -635 0
-1436 -582 -651 0
-1436 -582 -655 0
-1436 -582 -659 0
-1436 -582 -675 0
-1436 -582 -679 0
-1436 -582 -683 0
-1436 -582 -574 -591 0
-1436 -583 777 0
-1436 -583 -628 0
-1436 -583 -632 0
-1436 -583 -636 0
-1436 -583 -652 0
-1436 -583 -656 0
-1436 -583 -660 0
-1436 -583 -676 0
-1436 -583 -680 0
-1436 -583 -684 0
-1436 -583 -574 -592 0
-1436 -584 0
-1437 596 0
-1437 760 0
-1437 -562 0
-1437 -563 0
-1437 -567 0
-1437 -581 775 0
-1437 -581 -630 0
-1437 -581 -634 0
-1437 -581 -638 0
-1437 -581 -654 0
-1437 -581 -658 0
-1437 -581 -662 0
-1437 -581 -678 0
-1437 -581 -682 0
-1437 -581 -686 0
-1437 -581 -575 -590 0
-1437 -582 776 0
-1437 -582 -631 0
-1437 -582 -635 0
-1437 -582 -639 0
-1437 -582 -655 0
-1437 -582 -659 0
-1437 -582 -663 0
-1437 -582 -679 0
-1437 -582 -683 0
-1437 -582 -687 0
-1437 -582 -575 -591 0
-1437 -583 777 0
-1437 -583 -632 0
-1437 -583 -636 0
-1437 -583 -640 0
-1437 -583 -656 0
-1437 -583 -660 0
-1437 -583 -664 0
-1437 -583 -680 0
-1437 -583 -684 0
-1437 -583 -688 0
-1437 -583 -575 -592 0
-1437 -584 0
-1438 596 0
-1438 761 0
-1438 -562 0
-1438 -563 0
-1438 -564 0
-1438 -581 775 0
-1438 -581 -634 0
-1438 -581 -638 0
-1438 -581 -642 0
-1438 -581 -658 0
-1438 -581 -662 0
-1438 -581 -666 0
-1438 -581 -682 0
-1438 -581 -686 0
-1438 -581 -690 0
-1438 -581 -576 -590 0
-1438 -582 776 0
-1438 -582 -635 0
-1438 -582 -639 0
-1438 -582 -643 0
-1438 -582 -659 0
-1438 -582 -663 0
-1438 -582 -667 0
-1438 -582 -683 0
-1438 -582 -687 0
-1438 -582 -691 0
-1438 -582 -576 -591 0
-1438 -583 777 0
-1438 -583 -636 0
-1438 -583 -640 0
-1438 -583 -644 0
-1438 -583 -660 0
-1438 -583 -664 0
-1438 -583 -668 0
-1438 -583 -684 0
-1438 -583 -688 0
-1438 -583 -692 0
-1438 -583 -576 -592 0
-1438 -584 0
-1439 596 0
-1439 758 0
-1439 -571 0
-1439 -572 0
-1439 -585 775 0
-1439 -585 -622 0
-1439 -585 -626 0
-1439 -585 -630 0
-1439 -585 -646 0
-1439 -585 -650 0
-1439 -585 -654 0
-1439 -585 -670 0
-1439 -585 -674 0
-1439 -585 -678 0
-1439 -585 -573 -590 0
-1439 -586 776 0
-1439 -586 -623 0
-1439 -586 -627 0
-1439 -586 -631 0
-1439 -586 -647 0
-1439 -586 -651 0
-1439 -586 -655 0
-1439 -586 -671 0
-1439 -586 -675 0
-1439 -586 -679 0
-1439 -586 -573 -591 0
-1439 -587 777 0
-1439 -587 -624 0
-1439 -587 -628 0
-1439 -587 -632 0
-1439 -587 -648 0
-1439 -587 -652 0
-1439 -587 -656 0
-1439 -587 -672 0
-1439 -587 -676 0
-1439 -587 -680 0
-1439 -587 -573 -592 0
-1439 -588 0
-1440 596 0
-1440 759 0
-1440 -572 0
-1440 -585 775 0
-1440 -585 -626 0
-1440 -585 -630 0
-1440 -585 -634 0
-1440 -585 -650 0
-1440 -585 -654 0
-1440 -585 -658 0
-1440 -585 -674 0
-1440 -585 -678 0
-1440 -585 -682 0
-1440 -585 -574 -590 0
-1440 -586 776 0
-1440 -586 -627 0
-1440 -586 -631 0
-1440 -586 -635 0
-1440 -586 -651 0
-1440 -586 -655 0
-1440 -586 -659 0
-1440 -586 -675 0
-1440 -586 -679 0
-1440 -586 -683 0
-1440 -586 -574 -591 0
-1440 -587 777 0
-1440 -587 -628 0
-1440 -587 -632 0
-1440 -587 -636 0
-1440 -587 -652 0
-1440 -587 -656 0
-1440 -587 -660 0
-1440 -587 -676 0
-1440 -587 -680 0
-1440 -587 -684 0
-1440 -587 -574 -592 0
-1440 -588 0
-1441 596 0
-1441 760 0
-1441 -568 0
-1441 -585 775 0
-1441 -585 -630 0
-1441 -585 -634 0
-1441 -585 -638 0
-1441 -585 -654 0
-1441 -585 -658 0
-1441 -585 -662 0
-1441 -585 -678 0
-1441 -585 -682 0
-1441 -585 -686 0
-1441 -585 -575 -590 0
-1441 -586 776 0
-1441 -586 -631 0
-1441 -586 -635 0
-1441 -586 -639 0
-1441 -586 -655 0
-1441 -586 -659 0
-1441 -586 -663 0
-1441 -586 -679 0
-1441 -586 -683 0
-1441 -586 -687 0
-1441 -586 -575 -591 0
-1441 -587 777 0
-1441 -587 -632 0
-1441 -587 -636 0
-1441 -587 -640 0
-1441 -587 -656 0
-1441 -587 -660 0
-1441 -587 -664 0
-1441 -587 -680 0
-1441 -587 -684 0
-1441 -587 -688 0
-1441 -587 -575 -592 0
-1441 -588 0
-1442 596 0
-1442 761 0
-1442 -568 0
-1442 -569 0
-1442 -585 775 0
-1442 -585 -634 0
-1442 -585 -638 0
-1442 -585 -642 0
-1442 -585 -658 0
-1442 -585 -662 0
-1442 -585 -666 0
-1442 -585 -682 0
-1442 -585 -686 0
-1442 -585 -690 0
-1442 -585 -576 -590 0
-1442 -586 776 0
-1442 -586 -635 0
-1442 -586 -639 0
-1442 -586 -643 0
-1442 -586 -659 0
-1442 -586 -663 0
-1442 -586 -667 0
-1442 -586 -683 0
-1442 -586 -687 0
-1442 -586 -691 0
-1442 -586 -576 -591 0
-1442 -587 777 0
-1442 -587 -636 0
-1442 -587 -640 0
-1442 -587 -644 0
-1442 -587 -660 0
-1442 -587 -664 0
-1442 -587 -668 0
-1442 -587 -684 0
-1442 -587 -688 0
-1442 -587 -692 0
-1442 -587 -576 -592 0
-1442 -588 0
-1443 596 0
-1443 758 0
-1443 774 0
-1443 -621 0
-1443 -625 0
-1443 -629 0
-1443 -645 0
-1443 -649 0
-1443 -653 0
-1443 -669 0
-1443 -673 0
-1443 -677 0
-1443 -573 -589 0
-1444 596 0
-1444 759 0
-1444 774 0
-1444 -625 0
-1444 -629 0
-1444 -633 0
-1444 -649 0
-1444 -653 0
-1444 -657 0
-1444 -673 0
-1444 -677 0
-1444 -681 0
-1444 -574 -589 0
-1445 596 0
-1445 760 0
-1445 774 0
-1445 -629 0
-1445 -633 0
-1445 -637 0
-1445 -653 0
-1445 -657 0
-1445 -661 0
-1445 -677 0
-1445 -681 0
-1445 -685 0
-1445 -575 -589 0
-1446 596 0
-1446 761 0
-1446 774 0
-1446 -633 0
-1446 -637 0
-1446 -641 0
-1446 -657 0
-1446 -661 0
-1446 -665 0
-1446 -681 0
-1446 -685 0
-1446 -689 0
-1446 -576 -589 0
-556 741 1363 1364 1365 1366 1367 1368 1369 1370 1371 1372 1373 1374 1375 1376 1377 1378 1379 1380 1381 1382 1383 1384 1385 1386 0
-557 742 1363 1364 1365 1366 1367 1368 1369 1370 1371 1372 1373 1374 1375 1376 1377 1378 1379 1380 1381 1382 1383 1384 1385 1386 0
-558 743 1363 1364 1365 1366 1367 1368 1369 1370 1371 1372 1373 1374 1375 1376 1377 1378 1379 1380 1381 1382 1383 1384 1385 1386 0
-559 744 1363 1364 1365 1366 1367 1368 1369 1370 1371 1372 1373 1374 1375 1376 1377 1378 1379 1380 1381 1382 1383 1384 1385 1386 0
-560 745 1363 1364 1365 1366 1367 1368 1369 1370 1371 1372 1373 1374 1375 1376 1377 1378 1379 1380 1381 1382 1383 1384 1385 1386 0
-561 746 1363 1364 1365 1366 1367 1368 1369 1370 1371 1372 1373 1374 1375 1376 1377 1378 1379 1380 1381 1382 1383 1384 1385 1386 0
-577 762 1363 1364 1365 1366 1367 1368 1369 1370 1371 1372 1373 1374 1375 1376 1377 1378 1379 1380 1381 1382 1383 1384 1385 1386 0
-578 763 1363 1364 1365 1366 1367 1368 1369 1370 1371 1372 1373 1374 1375 1376 1377 1378 1379 1380 1381 1382 1383 1384 1385 1386 0
-579 764 1363 1364 1365 1366 1367 1368 1369 1370 1371 1372 1373 1374 1375 1376 1377 1378 1379 1380 1381 1382 1383 1384 1385 1386 0
-580 765 1363 1364 1365 1366 1367 1368 1369 1370 1371 1372 1373 1374 1375 1376 1377 1378 1379 1380 1381 1382 1383 1384 1385 1386 0
-562 747 1387 1388 1389 1390 1391 1392 1393 1394 1395 1396 1397 1398 1399 1400 1401 1402 1403 1404 1405 1406 1407 1408 1409 1410 0
-563 748 1387 1388 1389 1390 1391 1392 1393 1394 1395 1396 1397 1398 1399 1400 1401 1402 1403 1404 1405 1406 1407 1408 1409 1410 0
-564 749 1387 1388 1389 1390 1391 1392 1393 1394 1395 1396 1397 1398 1399 1400 1401 1402 1403 1404 1405 1406 1407 1408 1409 1410 0
-565 750 1387 1388 1389 1390 1391 1392 1393 1394 1395 1396 1397 1398 1399 1400 1401 1402 1403 1404 1405 1406 1407 1408 1409 1410 0
-566 751 1387 1388 1389 1390 1391 1392 1393 1394 1395 1396 1397 1398 1399 1400 1401 1402 1403 1404 1405 1406 1407 1408 1409 1410 0
-567 752 1387 1388 1389 1390 1391 1392 1393 1394 1395 1396 1397 1398 1399 1400 1401 1402 1403 1404 1405 1406 1407 1408 1409 1410 0
-581 766 1387 1388 1389 1390 1391 1392 1393 1394 1395 1396 1397 1398 1399 1400 1401 1402 1403 1404 1405 1406 1407 1408 1409 1410 0
-582 767 1387 1388 1389 1390 1391 1392 1393 1394 1395 1396 1397 1398 1399 1400 1401 1402 1403 1404 1405 1406 1407 1408 1409 1410 0
-583 768 1387 1388 1389 1390 1391 1392 1393 1394 1395 1396 1397 1398 1399 1400 1401 1402 1403 1404 1405 1406 1407 1408 1409 1410 0
-584 769 1387 1388 1389 1390 1391 1392 1393 1394 1395 1396 1397 1398 1399 1400 1401 1402 1403 1404 1405 1406 1407 1408 1409 1410 0
-568 753 1411 1412 1413 1414 1415 1416 1417 1418 1419 1420 1421 1422 1423 1424 1425 1426 1427 1428 1429 1430 0
-569 754 1411 1412 1413 1414 1415 1416 1417 1418 1419 1420 1421 1422 1423 1424 1425 1426 1427 1428 1429 1430 0
-570 755 1411 1412 1413 1414 1415 1416 1417 1418 1419 1420 1421 1422 1423 1424 1425 1426 1427 1428 1429 1430 0
-571 756 1411 1412 1413 1414 1415 1416 1417 1418 1419 1420 1421 1422 1423 1424 1425 1426 1427 1428 1429 1430 0
-572 757 1411 1412 1413 1414 1415 1416 1417 1418 1419 1420 1421 1422 1423 1424 1425 1426 1427 1428 1429 1430 0
-585 770 1411 1412 1413 1414 1415 1416 1417 1418 1419 1420 1421 1422 1423 1424 1425 1426 1427 1428 1429 1430 0
-586 771 1411 1412 1413 1414 1415 1416 1417 1418 1419 1420 1421 1422 1423 1424 1425 1426 1427 1428 1429 1430 0
-587 772 1411 1412 1413 1414 1415 1416 1417 1418 1419 1420 1421 1422 1423 1424 1425 1426 1427 1428 1429 1430 0
-588 773 1411 1412 1413 1414 1415 1416 1417 1418 1419 1420 1421 1422 1423 1424 1425 1426 1427 1428 1429 1430 0
-573 758 1431 1432 1433 1434 1435 1436 1437 1438 1439 1440 1441 1442 1443 1444 1445 1446 0
-574 759 1431 1432 1433 1434 1435 1436 1437 1438 1439 1440 1441 1442 1443 1444 1445 1446 0
-575 760 1431 1432 1433 1434 1435 1436 1437 1438 1439 1440 1441 1442 1443 1444 1445 1446 0
-576 761 1431 1432 1433 1434 1435 1436 1437 1438 1439 1440 1441 1442 1443 1444 1445 1446 0
-589 774 1431 1432 1433 1434 1435 1436 1437 1438 1439 1440 1441 1442 1443 1444 1445 1446 0
-590 775 1431 1432 1433 1434 1435 1436 1437 1438 1439 1440 1441 1442 1443 1444 1445 1446 0
-591 776 1431 1432 1433 1434 1435 1436 1437 1438 1439 1440 1441 1442 1443 1444 1445 1446 0
-592 777 1431 1432 1433 1434 1435 1436 1437 1438 1439 1440 1441 1442 1443 1444 1445 1446 0
-1447 -1448 0
-1447 -1449 0
-1447 -1450 0
-1447 -1451 0
-1447 -1452 0
-1447 -1453 0
-1447 -1454 0
-1447 -1455 0
-1447 -1456 0
-1447 -1457 0
-1447 -1458 0
-1447 -1459 0
-1447 -1460 0
-1447 -1461 0
-1447 -1462 0
-1447 -1463 0
-1447 -1464 0
-1447 -1465 0
-1447 -1466 0
-1447 -1467 0
-1447 -1468 0
-1447 -1469 0
-1447 -1470 0
-1447 -1471 0
-1447 -1472 0
-1447 -1473 0
-1447 -1474 0
-1447 -1475 0
-1447 -1476 0
-1447 -1477 0
-1447 -1478 0
-1447 -1479 0
-1447 -1480 0
-1447 -1481 0
-1447 -1482 0
-1447 -1483 0
-1447 -1484 0
-1447 -1485 0
-1447 -1486 0
-1447 -1487 0
-1447 -1488 0
-1447 -1489 0
-1447 -1490 0
-1447 -1491 0
-1447 -1492 0
-1447 -1493 0
-1447 -1494 0
-1447 -1495 0
-1447 -1496 0
-1447 -1497 0
-1447 -1498 0
-1447 -1499 0
-1447 -1500 0
-1447 -1501 0
-1447 -1502 0
-1447 -1503 0
-1447 -1504 0
-1447 -1505 0
-1447 -1506 0
-1447 -1507 0
-1447 -1508 0
-1447 -1509 0
-1447 -1510 0
-1447 -1511 0
-1447 -1512 0
-1447 -1513 0
-1447 -1514 0
-1447 -1515 0
-1447 -1516 0
-1447 -1517 0
-1447 -1518 0
-1447 -1519 0
-1447 -1520 0
-1447 -1521 0
-1447 -1522 0
-1447 -1523 0
-1447 -1524 0
-1447 -1525 0
-1447 -1526 0
-1447 -1527 0
-1447 -1528 0
-1447 -1529 0
-1447 -1530 0
-1448 -1449 0
-1448 -1450 0
-1448 -1451 0
-1448 -1452 0
-1448 -1453 0
-1448 -1454 0
-1448 -1455 0
-1448 -1456 0
-1448 -1457 0
-1448 -1458 0
-1448 -1459 0
-1448 -1460 0
-1448 -1461 0
-1448 -1462 0
-1448 -1463 0
-1448 -1464 0
-1448 -1465 0
-1448 -1466 0
-1448 -1467 0
-1448 -1468 0
-1448 -1469 0
-1448 -1470 0
-1448 -1471 0
-1448 -1472 0
-1448 -1473 0
-1448 -1474 0
-1448 -1475 0
-1448 -1476 0
-1448 -1477 0
-1448 -1478 0
-1448 -1479 0
-1448 -1480 0
-1448 -1481 0
-1448 -1482 0
-1448 -1483 0
-1448 -1484 0
-1448 -1485 0
-1448 -1486 0
-1448 -1487 0
-1448 -1488 0
-1448 -1489 0
-1448 -1490 0
-1448 -1491 0
-1448 -1492 0
-1448 -1493 0
-1448 -1494 0
-1448 -1495 0
-1448 -1496 0
-1448 -1497 0
-1448 -1498 0
-1448 -1499 0
-1448 -1500 0
-1448 -1501 0
-1448 -1502 0
-1448 -1503 0
-1448 -1504 0
-1448 -1505 0
-1448 -1506 0
-1448 -1507 0
-1448 -1508 0
-1448 -1509 0
-1448 -1510 0
-1448 -1511 0
-1448 -1512 0
-1448 -1513 0
-1448 -1514 0
-1448 -1515 0
-1448 -1516 0
-1448 -1517 0
-1448 -1518 0
-1448 -1519 0
-1448 -1520 0
-1448 -1521 0
-1448 -1522 0
-1448 -1523 0
-1448 -1524 0
-1448 -1525 0
-1448 -1526 0
-1448 -1527 0
-1448 -1528 0
-1448 -1529 0
-1448 -1530 0
-1449 -1450 0
-1449 -1451 0
-1449 -1452 0
-1449 -1453 0
-1449 -1454 0
-1449 -1455 0
-1449 -1456 0
-1449 -1457 0
-1449 -1458 0
-1449 -1459 0
-1449 -1460 0
-1449 -1461 0
-1449 -1462 0
-1449 -1463 0
-1449 -1464 0
-1449 -1465 0
-1449 -1466 0
-1449 -1467 0
-1449 -1468 0
-1449 -1469 0
-1449 -1470 0
-1449 -1471 0
-1449 -1472 0
-1449 -1473 0
-1449 -1474 0
-1449 -1475 0
-1449 -1476 0
-1449 -1477 0
-1449 -1478 0
-1449 -1479 0
-1449 -1480 0
-1449 -1481 0
-1449 -1482 0
-1449 -1483 0
-1449 -1484 0
-1449 -1485 0
-1449 -1486 0
-1449 -1487 0
-1449 -1488 0
-1449 -1489 0
-1449 -1490 0
-1449 -1491 0
-1449 -1492 0
-1449 -1493 0
-1449 -1494 0
-1449 -1495 0
-1449 -1496 0
-1449 -1497 0
-1449 -1498 0
-1449 -1499 0
-1449 -1500 0
-1449 -1501 0
-1449 -1502 0
-1449 -1503 0
-1449 -1504 0
-1449 -1505 0
-1449 -1506 0
-1449 -1507 0
-1449 -1508 0
-1449 -1509 0
-1449 -1510 0
-1449 -1511 0
-1449 -1512 0
-1449 -1513 0
-1449 -1514 0
-1449 -1515 0
-1449 -1516 0
-1449 -1517 0
-1449 -1518 0
-1449 -1519 0
-1449 -1520 0
-1449 -1521 0
-1449 -1522 0
-1449 -1523 0
-1449 -1524 0
-1449 -1525 0
-1449 -1526 0
-1449 -1527 0
-1449 -1528 0
-1449 -1529 0
-1449 -1530 0
-1450 -1451 0
-1450 -1452 0
-1450 -1453 0
-1450 -1454 0
-1450 -1455 0
-1450 -1456 0
-1450 -1457 0
-1450 -1458 0
-1450 -1459 0
-1450 -1460 0
-1450 -1461 0
-1450 -1462 0
-1450 -1463 0
-1450 -1464 0
-1450 -1465 0
-1450 -1466 0
-1450 -1467 0
-1450 -1468 0
-1450 -1469 0
-1450 -1470 0
-1450 -1471 0
-1450 -1472 0
-1450 -1473 0
-1450 -1474 0
-1450 -1475 0
-1450 -1476 0
-1450 -1477 0
-1450 -1478 0
-1450 -1479 0
-1450 -1480 0
-1450 -1481 0
-1450 -1482 0
-1450 -1483 0
-1450 -1484 0
-1450 -1485 0
-1450 -1486 0
-1450 -1487 0
-1450 -1488 0
-1450 -1489 0
-1450 -1490 0
-1450 -1491 0
-1450 -1492 0
-1450 -1493 0
-1450 -1494 0
-1450 -1495 0
-1450 -1496 0
-1450 -1497 0
-1450 -1498 0
-1450 -1499 0
-1450 -1500 0
-1450 -1501 0
-1450 -1502 0
-1450 -1503 0
-1450 -1504 0
-1450 -1505 0
-1450 -1506 0
-1450 -1507 0
-1450 -1508 0
-1450 -1509 0
-1450 -1510 0
-1450 -1511 0
-1450 -1512 0
-1450 -1513 0
-1450 -1514 0
-1450 -1515 0
-1450 -1516 0
-1450 -1517 0
-1450 -1518 0
-1450 -1519 0
-1450 -1520 0
-1450 -1521 0
-1450 -1522 0
-1450 -1523 0
-1450 -1524 0
-1450 -1525 0
-1450 -1526 0
-1450 -1527 0
-1450 -1528 0
-1450 -1529 0
-1450 -1530 0
-1451 -1452 0
-1451 -1453 0
-1451 -1454 0
-1451 -1455 0
-1451 -1456 0
-1451 -1457 0
-1451 -1458 0
-1451 -1459 0
-1451 -1460 0
-1451 -1461 0
-1451 -1462 0
-1451 -1463 0
-1451 -1464 0
-1451 -1465 0
-1451 -1466 0
-1451 -1467 0
-1451 -1468 0
-1451 -1469 0
-1451 -1470 0
-1451 -1471 0
-1451 -1472 0
-1451 -1473 0
-1451 -1474 0
-1451 -1475 0
-1451 -1476 0
-1451 -1477 0
-1451 -1478 0
-1451 -1479 0
-1451 -1480 0
-1451 -1481 0
-1451 -1482 0
-1451 -1483 0
-1451 -1484 0
-1451 -1485 0
-1451 -1486 0
-1451 -1487 0
-1451 -1488 0
-1451 -1489 0
-1451 -1490 0
-1451 -1491 0
-1451 -1492 0
-1451 -1493 0
-1451 -1494 0
-1451 -1495 0
-1451 -1496 0
-1451 -1497 0
-1451 -1498 0
-1451 -1499 0
-1451 -1500 0
-1451 -1501 0
-1451 -1502 0
-1451 -1503 0
-1451 -1504 0
-1451 -1505 0
-1451 -1506 0
-1451 -1507 0
-1451 -1508 0
-1451 -1509 0
-1451 -1510 0
-1451 -1511 0
-1451 -1512 0
-1451 -1513 0
-1451 -1514 0
-1451 -1515 0
-1451 -1516 0
-1451 -1517 0
-1451 -1518 0
-1451 -1519 0
-1451 -1520 0
-1451 -1521 0
-1451 -1522 0
-1451 -1523 0
-1451 -1524 0
-1451 -1525 0
-1451 -1526 0
-1451 -1527 0
-1451 -1528 0
-1451 -1529 0
-1451 -1530 0
-1452 -1453 0
-1452 -1454 0
-1452 -1455 0
-1452 -1456 0
-1452 -1457 0
-1452 -1458 0
-1452 -1459 0
-1452 -1460 0
-1452 -1461 0
-1452 -1462 0
-1452 -1463 0
-1452 -1464 0
-1452 -1465 0
-1452 -1466 0
-1452 -1467 0
-1452 -1468 0
-1452 -1469 0
-1452 -1470 0
-1452 -1471 0
-1452 -1472 0
-1452 -1473 0
-1452 -1474 0
-1452 -1475 0
-1452 -1476 0
-1452 -1477 0
-1452 -1478 0
-1452 -1479 0
-1452 -1480 0
-1452 -1481 0
-1452 -1482 0
-1452 -1483 0
-1452 -1484 0
-1452 -1485 0
-1452 -1486 0
-1452 -1487 0
-1452 -1488 0
-1452 -1489 0
-1452 -1490 0
-1452 -1491 0
-1452 -1492 0
-1452 -1493 0
-1452 -1494 0
-1452 -1495 0
-1452 -1496 0
-1452 -1497 0
-1452 -1498 0
-1452 -1499 0
-1452 -1500 0
-1452 -1501 0
-1452 -1502 0
-1452 -1503 0
-1452 -1504 0
-1452 -1505 0
-1452 -1506 0
-1452 -1507 0
-1452 -1508 0
-1452 -1509 0
-1452 -1510 0
-1452 -1511 0
-1452 -1512 0
-1452 -1513 0
-1452 -1514 0
-1452 -1515 0
-1452 -1516 0
-1452 -1517 0
-1452 -1518 0
-1452 -1519 0
-1452 -1520 0
-1452 -1521 0
-1452 -1522 0
-1452 -1523 0
-1452 -1524 0
-1452 -1525 0
-1452 -1526 0
-1452 -1527 0
-1452 -1528 0
-1452 -1529 0
-1452 -1530 0
-1453 -1454 0
-1453 -1455 0
-1453 -1456 0
-1453 -1457 0
-1453 -1458 0
-1453 -1459 0
-1453 -1460 0
-1453 -1461 0
-1453 -1462 0
-1453 -1463 0
-1453 -1464 0
-1453 -1465 0
-1453 -1466 0
-1453 -1467 0
-1453 -1468 0
-1453 -1469 0
-1453 -1470 0
-1453 -1471 0
-1453 -1472 0
-1453 -1473 0
-1453 -1474 0
-1453 -1475 0
-1453 -1476 0
-1453 -1477 0
-1453 -1478 0
-1453 -1479 0
-1453 -1480 0
-1453 -1481 0
-1453 -1482 0
-1453 -1483 0
-1453 -1484 0
-1453 -1485 0
-1453 -1486 0
-1453 -1487 0
-1453 -1488 0
-1453 -1489 0
-1453 -1490 0
-1453 -1491 0
-1453 -1492 0
-1453 -1493 0
-1453 -1494 0
-1453 -1495 0
-1453 -1496 0
-1453 -1497 0
-1453 -1498 0
-1453 -1499 0
-1453 -1500 0
-1453 -1501 0
-1453 -1502 0
-1453 -1503 0
-1453 -1504 0
-1453 -1505 0
-1453 -1506 0
-1453 -1507 0
-1453 -1508 0
-1453 -1509 0
-1453 -1510 0
-1453 -1511 0
-1453 -1512 0
-1453 -1513 0
-1453 -1514 0
-1453 -1515 0
-1453 -1516 0
-1453 -1517 0
-1453 -1518 0
-1453 -1519 0
-1453 -1520 0
-1453 -1521 0
-1453 -1522 0
-1453 -1523 0
-1453 -1524 0
-1453 -1525 0
-1453 -1526 0
-1453 -1527 0
-1453 -1528 0
-1453 -1529 0
-1453 -1530 0
-1454 -1455 0
-1454 -1456 0
-1454 -1457 0
-1454 -1458 0
-1454 -1459 0
-1454 -1460 0
-1454 -1461 0
-1454 -1462 0
-1454 -1463 0
-1454 -1464 0
-1454 -1465 0
-1454 -1466 0
-1454 -1467 0
-1454 -1468 0
-1454 -1469 0
-1454 -1470 0
-1454 -1471 0
-1454 -1472 0
-1454 -1473 0
-1454 -1474 0
-1454 -1475 0
-1454 -1476 0
-1454 -1477 0
-1454 -1478 0
-1454 -1479 0
-1454 -1480 0
-1454 -1481 0
-1454 -1482 0
-1454 -1483 0
-1454 -1484 0
-1454 -1485 0
-1454 -1486 0
-1454 -1487 0
-1454 -1488 0
-1454 -1489 0
-1454 -1490 0
-1454 -1491 0
-1454 -1492 0
-1454 -1493 0
-1454 -1494 0
-1454 -1495 0
-1454 -1496 0
-1454 -1497 0
-1454 -1498 0
-1454 -1499 0
-1454 -1500 0
-1454 -1501 0
-1454 -1502 0
-1454 -1503 0
-1454 -1504 0
-1454 -1505 0
-1454 -1506 0
-1454 -1507 0
-1454 -1508 0
-1454 -1509 0
-1454 -1510 0
-1454 -1511 0
-1454 -1512 0
-1454 -1513 0
-1454 -1514 0
-1454 -1515 0
-1454 -1516 0
-1454 -1517 0
-1454 -1518 0
-1454 -1519 0
-1454 -1520 0
-1454 -1521 0
-1454 -1522 0
-1454 -1523 0
-1454 -1524 0
-1454 -1525 0
-1454 -1526 0
-1454 -1527 0
-1454 -1528 0
-1454 -1529 0
-1454 -1530 0
-1455 -1456 0
-1455 -1457 0
-1455 -1458 0
-1455 -1459 0
-1455 -1460 0
-1455 -1461 0
-1455 -1462 0
-1455 -1463 0
-1455 -1464 0
-1455 -1465 0
-1455 -1466 0
-1455 -1467 0
-1455 -1468 0
-1455 -1469 0
-1455 -1470 0
-1455 -1471 0
-1455 -1472 0
-1455 -1473 0
-1455 -1474 0
-1455 -1475 0
-1455 -1476 0
-1455 -1477 0
-1455 -1478 0
-1455 -1479 0
-1455 -1480 0
-1455 -1481 0
-1455 -1482 0
-1455 -1483 0
-1455 -1484 0
-1455 -1485 0
-1455 -1486 0
-1455 -1487 0
-1455 -1488 0
-1455 -1489 0
-1455 -1490 0
-1455 -1491 0
-1455 -1492 0
-1455 -1493 0
-1455 -1494 0
-1455 -1495 0
-1455 -1496 0
-1455 -1497 0
-1455 -1498 0
-1455 -1499 0
-1455 -1500 0
-1455 -1501 0
-1455 -1502 0
-1455 -1503 0
-1455 -1504 0
-1455 -1505 0
-1455 -1506 0
-1455 -1507 0
-1455 -1508 0
-1455 -1509 0
-1455 -1510 0
-1455 -1511 0
-1455 -1512 0
-1455 -1513 0
-1455 -1514 0
-1455 -1515 0
-1455 -1516 0
-1455 -1517 0
-1455 -1518 0
-1455 -1519 0
-1455 -1520 0
-1455 -1521 0
-1455 -1522 0
-1455 -1523 0
-1455 -1524 0
-1455 -1525 0
-1455 -1526 0
-1455 -1527 0
-1455 -1528 0
-1455 -1529 0
-1455 -1530 0
-1456 -1457 0
-1456 -1458 0
-1456 -1459 0
-1456 -1460 0
-1456 -1461 0
-1456 -1462 0
-1456 -1463 0
-1456 -1464 0
-1456 -1465 0
-1456 -1466 0
-1456 -1467 0
-1456 -1468 0
-1456 -1469 0
-1456 -1470 0
-1456 -1471 0
-1456 -1472 0
-1456 -1473 0
-1456 -1474 0
-1456 -1475 0
-1456 -1476 0
-1456 -1477 0
-1456 -1478 0
-1456 -1479 0
-1456 -1480 0
-1456 -1481 0
-1456 -1482 0
-1456 -1483 0
-1456 -1484 0
-1456 -1485 0
-1456 -1486 0
-1456 -1487 0
-1456 -1488 0
-1456 -1489 0
-1456 -1490 0
-1456 -1491 0
-1456 -1492 0
-1456 -1493 0
-1456 -1494 0
-1456 -1495 0
-1456 -1496 0
-1456 -1497 0
-1456 -1498 0
-1456 -1499 0
-1456 -1500 0
-1456 -1501 0
-1456 -1502 0
-1456 -1503 0
-1456 -1504 0
-1456 -1505 0
-1456 -1506 0
-1456 -1507 0
-1456 -1508 0
-1456 -1509 0
-1456 -1510 0
-1456 -1511 0
-1456 -1512 0
-1456 -1513 0
-1456 -1514 0
-1456 -1515 0
-1456 -1516 0
-1456 -1517 0
-1456 -1518 0
-1456 -1519 0
-1456 -1520 0
-1456 -1521 0
-1456 -1522 0
-1456 -1523 0
-1456 -1524 0
-1456 -1525 0
-1456 -1526 0
-1456 -1527 0
-1456 -1528 0
-1456 -1529 0
-1456 -1530 0
-1457 -1458 0
-1457 -1459 0
-1457 -1460 0
-1457 -1461 0
-1457 -1462 0
-1457 -1463 0
-1457 -1464 0
-1457 -1465 0
-1457 -1466 0
-1457 -1467 0
-1457 -1468 0
-1457 -1469 0
-1457 -1470 0
-1457 -1471 0
-1457 -1472 0
-1457 -1473 0
-1457 -1474 0
-1457 -1475 0
-1457 -1476 0
-1457 -1477 0
-1457 -1478 0
-1457 -1479 0
-1457 -1480 0
-1457 -1481 0
-1457 -1482 0
-1457 -1483 0
-1457 -1484 0
-1457 -1485 0
-1457 -1486 0
-1457 -1487 0
-1457 -1488 0
-1457 -1489 0
-1457 -1490 0
-1457 -1491 0
-1457 -1492 0
-1457 -1493 0
-1457 -1494 0
-1457 -1495 0
-1457 -1496 0
-1457 -1497 0
-1457 -1498 0
-1457 -1499 0
-1457 -1500 0
-1457 -1501 0
-1457 -1502 0
-1457 -1503 0
-1457 -1504 0
-1457 -1505 0
-1457 -1506 0
-1457 -1507 0
-1457 -1508 0
-1457 -1509 0
-1457 -1510 0
-1457 -1511 0
-1457 -1512 0
-1457 -1513 0
-1457 -1514 0
-1457 -1515 0
-1457 -1516 0
-1457 -1517 0
-1457 -1518 0
-1457 -1519 0
-1457 -1520 0
-1457 -1521 0
-1457 -1522 0
-1457 -1523 0
-1457 -1524 0
-1457 -1525 0
-1457 -1526 0
-1457 -1527 0
-1457 -1528 0
-1457 -1529 0
-1457 -1530 0
-1458 -1459 0
-1458 -1460 0
-1458 -1461 0
-1458 -1462 0
-1458 -1463 0
-1458 -1464 0
-1458 -1465 0
-1458 -1466 0
-1458 -1467 0
-1458 -1468 0
-1458 -1469 0
-1458 -1470 0
-1458 -1471 0
-1458 -1472 0
-1458 -1473 0
-1458 -1474 0
-1458 -1475 0
-1458 -1476 0
-1458 -1477 0
-1458 -1478 0
-1458 -1479 0
-1458 -1480 0
-1458 -1481 0
-1458 -1482 0
-1458 -1483 0
-1458 -1484 0
-1458 -1485 0
-1458 -1486 0
-1458 -1487 0
-1458 -1488 0
-1458 -1489 0
-1458 -1490 0
-1458 -1491 0
-1458 -1492 0
-1458 -1493 0
-1458 -1494 0
-1458 -1495 0
-1458 -1496 0
-1458 -1497 0
-1458 -1498 0
-1458 -1499 0
-1458 -1500 0
-1458 -1501 0
-1458 -1502 0
-1458 -1503 0
-1458 -1504 0
-1458 -1505 0
-1458 -1506 0
-1458 -1507 0
-1458 -1508 0
-1458 -1509 0
-1458 -1510 0
-1458 -1511 0
-1458 -1512 0
-1458 -1513 0
-1458 -1514 0
-1458 -1515 0
-1458 -1516 0
-1458 -1517 0
-1458 -1518 0
-1458 -1519 0
-1458 -1520 0
-1458 -1521 0
-1458 -1522 0
-1458 -1523 0
-1458 -1524 0
-1458 -1525 0
-1458 -1526 0
-1458 -1527 0
-1458 -1528 0
-1458 -1529 0
-1458 -1530 0
-1459 -1460 0
-1459 -1461 0
-1459 -1462 0
-1459 -1463 0
-1459 -1464 0
-1459 -1465 0
-1459 -1466 0
-1459 -1467 0
-1459 -1468 0
-1459 -1469 0
-1459 -1470 0
-1459 -1471 0
-1459 -1472 0
-1459 -1473 0
-1459 -1474 0
-1459 -1475 0
-1459 -1476 0
-1459 -1477 0
-1459 -1478 0
-1459 -1479 0
-1459 -1480 0
-1459 -1481 0
-1459 -1482 0
-1459 -1483 0
-1459 -1484 0
-1459 -1485 0
-1459 -1486 0
-1459 -1487 0
-1459 -1488 0
-1459 -1489 0
-1459 -1490 0
-1459 -1491 0
-1459 -1492 0
-1459 -1493 0
-1459 -1494 0
-1459 -1495 0
-1459 -1496 0
-1459 -1497 0
-1459 -1498 0
-1459 -1499 0
-1459 -1500 0
-1459 -1501 0
-1459 -1502 0
-1459 -1503 0
-1459 -1504 0
-1459 -1505 0
-1459 -1506 0
-1459 -1507 0
-1459 -1508 0
-1459 -1509 0
-1459 -1510 0
-1459 -1511 0
-1459 -1512 0
-1459 -1513 0
-1459 -1514 0
-1459 -1515 0
-1459 -1516 0
-1459 -1517 0
-1459 -1518 0
-1459 -1519 0
-1459 -1520 0
-1459 -1521 0
-1459 -1522 0
-1459 -1523 0
-1459 -1524 0
-1459 -1525 0
-1459 -1526 0
-1459 -1527 0
-1459 -1528 0
-1459 -1529 0
-1459 -1530 0
-1460 -1461 0
-1460 -1462 0
-1460 -1463 0
-1460 -1464 0
-1460 -1465 0
-1460 -1466 0
-1460 -1467 0
-1460 -1468 0
-1460 -1469 0
-1460 -1470 0
-1460 -1471 0
-1460 -1472 0
-1460 -1473 0
-1460 -1474 0
-1460 -1475 0
-1460 -1476 0
-1460 -1477 0
-1460 -1478 0
-1460 -1479 0
-1460 -1480 0
-1460 -1481 0
-1460 -1482 0
-1460 -1483 0
-1460 -1484 0
-1460 -1485 0
-1460 -1486 0
-1460 -1487 0
-1460 -1488 0
-1460 -1489 0
-1460 -1490 0
-1460 -1491 0
-1460 -1492 0
-1460 -1493 0
-1460 -1494 0
-1460 -1495 0
-1460 -1496 0
-1460 -1497 0
-1460 -1498 0
-1460 -1499 0
-1460 -1500 0
-1460 -1501 0
-1460 -1502 0
-1460 -1503 0
-1460 -1504 0
-1460 -1505 0
-1460 -1506 0
-1460 -1507 0
-1460 -1508 0
-1460 -1509 0
-1460 -1510 0
-1460 -1511 0
-1460 -1512 0
-1460 -1513 0
-1460 -1514 0
-1460 -1515 0
-1460 -1516 0
-1460 -1517 0
-1460 -1518 0
-1460 -1519 0
-1460 -1520 0
-1460 -1521 0
-1460 -1522 0
-1460 -1523 0
-1460 -1524 0
-1460 -1525 0
-1460 -1526 0
-1460 -1527 0
-1460 -1528 0
-1460 -1529 0
-1460 -1530 0
-1461 -1462 0
-1461 -1463 0
-1461 -1464 0
-1461 -1465 0
-1461 -1466 0
-1461 -1467 0
-1461 -1468 0
-1461 -1469 0
-1461 -1470 0
-1461 -1471 0
-1461 -1472 0
-1461 -1473 0
-1461 -1474 0
-1461 -1475 0
-1461 -1476 0
-1461 -1477 0
-1461 -1478 0
-1461 -1479 0
-1461 -1480 0
-1461 -1481 0
-1461 -1482 0
-1461 -1483 0
-1461 -1484 0
-1461 -1485 0
-1461 -1486 0
-1461 -1487 0
-1461 -1488 0
-1461 -1489 0
-1461 -1490 0
-1461 -1491 0
-1461 -1492 0
-1461 -1493 0
-1461 -1494 0
-1461 -1495 0
-1461 -1496 0
-1461 -1497 0
-1461 -1498 0
-1461 -1499 0
-1461 -1500 0
-1461 -1501 0
-1461 -1502 0
-1461 -1503 0
-1461 -1504 0
-1461 -1505 0
-1461 -1506 0
-1461 -1507 0
-1461 -1508 0
-1461 -1509 0
-1461 -1510 0
-1461 -1511 0
-1461 -1512 0
-1461 -1513 0
-1461 -1514 0
-1461 -1515 0
-1461 -1516 0
-1461 -1517 0
-1461 -1518 0
-1461 -1519 0
-1461 -1520 0
-1461 -1521 0
-1461 -1522 0
-1461 -1523 0
-1461 -1524 0
-1461 -1525 0
-1461 -1526 0
-1461 -1527 0
-1461 -1528 0
-1461 -1529 0
-1461 -1530 0
-1462 -1463 0
-1462 -1464 0
-1462 -1465 0
-1462 -1466 0
-1462 -1467 0
-1462 -1468 0
-1462 -1469 0
-1462 -1470 0
-1462 -1471 0
-1462 -1472 0
-1462 -1473 0
-1462 -1474 0
-1462 -1475 0
-1462 -1476 0
-1462 -1477 0
-1462 -1478 0
-1462 -1479 0
-1462 -1480 0
-1462 -1481 0
-1462 -1482 0
-1462 -1483 0
-1462 -1484 0
-1462 -1485 0
-1462 -1486 0
-1462 -1487 0
-1462 -1488 0
-1462 -1489 0
-1462 -1490 0
-1462 -1491 0
-1462 -1492 0
-1462 -1493 0
-1462 -1494 0
-1462 -1495 0
-1462 -1496 0
-1462 -1497 0
-1462 -1498 0
-1462 -1499 0
-1462 -1500 0
-1462 -1501 0
-1462 -1502 0
-1462 -1503 0
-1462 -1504 0
-1462 -1505 0
-1462 -1506 0
-1462 -1507 0
-1462 -1508 0
-1462 -1509 0
-1462 -1510 0
-1462 -1511 0
-1462 -1512 0
-1462 -1513 0
-1462 -1514 0
-1462 -1515 0
-1462 -1516 0
-1462 -1517 0
-1462 -1518 0
-1462 -1519 0
-1462 -1520 0
-1462 -1521 0
-1462 -1522 0
-1462 -1523 0
-1462 -1524 0
-1462 -1525 0
-1462 -1526 0
-1462 -1527 0
-1462 -1528 0
-1462 -1529 0
-1462 -1530 0
-1463 -1464 0
-1463 -1465 0
-1463 -1466 0
-1463 -1467 0
-1463 -1468 0
-1463 -1469 0
-1463 -1470 0
-1463 -1471 0
-1463 -1472 0
-1463 -1473 0
-1463 -1474 0
-1463 -1475 0
-1463 -1476 0
-1463 -1477 0
-1463 -1478 0
-1463 -1479 0
-1463 -1480 0
-1463 -1481 0
-1463 -1482 0
-1463 -1483 0
-1463 -1484 0
-1463 -1485 0
-1463 -1486 0
-1463 -1487 0
-1463 -1488 0
-1463 -1489 0
-1463 -1490 0
-1463 -1491 0
-1463 -1492 0
-1463 -1493 0
-1463 -1494 0
-1463 -1495 0
-1463 -1496 0
-1463 -1497 0
-1463 -1498 0
-1463 -1499 0
-1463 -1500 0
-1463 -1501 0
-1463 -1502 0
-1463 -1503 0
-1463 -1504 0
-1463 -1505 0
-1463 -1506 0
-1463 -1507 0
-1463 -1508 0
-1463 -1509 0
-1463 -1510 0
-1463 -1511 0
-1463 -1512 0
-1463 -1513 0
-1463 -1514 0
-1463 -1515 0
-1463 -1516 0
-1463 -1517 0
-1463 -1518 0
-1463 -1519 0
-1463 -1520 0
-1463 -1521 0
-1463 -1522 0
-1463 -1523 0
-1463 -1524 0
-1463 -1525 0
-1463 -1526 0
-1463 -1527 0
-1463 -1528 0
-1463 -1529 0
-1463 -1530 0
-1464 -1465 0
-1464 -1466 0
-1464 -1467 0
-1464 -1468 0
-1464 -1469 0
-1464 -1470 0
-1464 -1471 0
-1464 -1472 0
-1464 -1473 0
-1464 -1474 0
-1464 -1475 0
-1464 -1476 0
-1464 -1477 0
-1464 -1478 0
-1464 -1479 0
-1464 -1480 0
-1464 -1481 0
-1464 -1482 0
-1464 -1483 0
-1464 -1484 0
-1464 -1485 0
-1464 -1486 0
-1464 -1487 0
-1464 -1488 0
-1464 -1489 0
-1464 -1490 0
-1464 -1491 0
-1464 -1492 0
-1464 -1493 0
-1464 -1494 0
-1464 -1495 0
-1464 -1496 0
-1464 -1497 0
-1464 -1498 0
-1464 -1499 0
-1464 -1500 0
-1464 -1501 0
-1464 -1502 0
-1464 -1503 0
-1464 -1504 0
-1464 -1505 0
-1464 -1506 0
-1464 -1507 0
-1464 -1508 0
-1464 -1509 0
-1464 -1510 0
-1464 -1511 0
-1464 -1512 0
-1464 -1513 0
-1464 -1514 0
-1464 -1515 0
-1464 -1516 0
-1464 -1517 0
-1464 -1518 0
-1464 -1519 0
-1464 -1520 0
-1464 -1521 0
-1464 -1522 0
-1464 -1523 0
-1464 -1524 0
-1464 -1525 0
-1464 -1526 0
-1464 -1527 0
-1464 -1528 0
-1464 -1529 0
-1464 -1530 0
-1465 -1466 0
-1465 -1467 0
-1465 -1468 0
-1465 -1469 0
-1465 -1470 0
-1465 -1471 0
-1465 -1472 0
-1465 -1473 0
-1465 -1474 0
-1465 -1475 0
-1465 -1476 0
-1465 -1477 0
-1465 -1478 0
-1465 -1479 0
-1465 -1480 0
-1465 -1481 0
-1465 -1482 0
-1465 -1483 0
-1465 -1484 0
-1465 -1485 0
-1465 -1486 0
-1465 -1487 0
-1465 -1488 0
-1465 -1489 0
-1465 -1490 0
-1465 -1491 0
-1465 -1492 0
-1465 -1493 0
-1465 -1494 0
-1465 -1495 0
-1465 -1496 0
-1465 -1497 0
-1465 -1498 0
-1465 -1499 0
-1465 -1500 0
-1465 -1501 0
-1465 -1502 0
-1465 -1503 0
-1465 -1504 0
-1465 -1505 0
-1465 -1506 0
-1465 -1507 0
-1465 -1508 0
-1465 -1509 0
-1465 -1510 0
-1465 -1511 0
-1465 -1512 0
-1465 -1513 0
-1465 -1514 0
-1465 -1515 0
-1465 -1516 0
-1465 -1517 0
-1465 -1518 0
-1465 -1519 0
-1465 -1520 0
-1465 -1521 0
-1465 -1522 0
-1465 -1523 0
-1465 -1524 0
-1465 -1525 0
-1465 -1526 0
-1465 -1527 0
-1465 -1528 0
-1465 -1529 0
-1465 -1530 0
-1466 -1467 0
-1466 -1468 0
-1466 -1469 0
-1466 -1470 0
-1466 -1471 0
-1466 -1472 0
-1466 -1473 0
-1466 -1474 0
-1466 -1475 0
-1466 -1476 0
-1466 -1477 0
-1466 -1478 0
-1466 -1479 0
-1466 -1480 0
-1466 -1481 0
-1466 -1482 0
-1466 -1483 0
-1466 -1484 0
-1466 -1485 0
-1466 -1486 0
-1466 -1487 0
-1466 -1488 0
-1466 -1489 0
-1466 -1490 0
-1466 -1491 0
-1466 -1492 0
-1466 -1493 0
-1466 -1494 0
-1466 -1495 0
-1466 -1496 0
-1466 -1497 0
-1466 -1498 0
-1466 -1499 0
-1466 -1500 0
-1466 -1501 0
-1466 -1502 0
-1466 -1503 0
-1466 -1504 0
-1466 -1505 0
-1466 -1506 0
-1466 -1507 0
-1466 -1508 0
-1466 -1509 0
-1466 -1510 0
-1466 -1511 0
-1466 -1512 0
-1466 -1513 0
-1466 -1514 0
-1466 -1515 0
-1466 -1516 0
-1466 -1517 0
-1466 -1518 0
-1466 -1519 0
-1466 -1520 0
-1466 -1521 0
-1466 -1522 0
-1466 -1523 0
-1466 -1524 0
-1466 -1525 0
-1466 -1526 0
-1466 -1527 0
-1466 -1528 0
-1466 -1529 0
-1466 -1530 0
-1467 -1468 0
-1467 -1469 0
-1467 -1470 0
-1467 -1471 0
-1467 -1472 0
-1467 -1473 0
-1467 -1474 0
-1467 -1475 0
-1467 -1476 0
-1467 -1477 0
-1467 -1478 0
-1467 -1479 0
-1467 -1480 0
-1467 -1481 0
-1467 -1482 0
-1467 -1483 0
-1467 -1484 0
-1467 -1485 0
-1467 -1486 0
-1467 -1487 0
-1467 -1488 0
-1467 -1489 0
-1467 -1490 0
-1467 -1491 0
-1467 -1492 0
-1467 -1493 0
-1467 -1494 0
-1467 -1495 0
-1467 -1496 0
-1467 -1497 0
-1467 -1498 0
-1467 -1499 0
-1467 -1500 0
-1467 -1501 0
-1467 -1502 0
-1467 -1503 0
-1467 -1504 0
-1467 -1505 0
-1467 -1506 0
-1467 -1507 0
-1467 -1508 0
-1467 -1509 0
-1467 -1510 0
-1467 -1511 0
-1467 -1512 0
-1467 -1513 0
-1467 -1514 0
-1467 -1515 0
-1467 -1516 0
-1467 -1517 0
-1467 -1518 0
-1467 -1519 0
-1467 -1520 0
-1467 -1521 0
-1467 -1522 0
-1467 -1523 0
-1467 -1524 0
-1467 -1525 0
-1467 -1526 0
-1467 -1527 0
-1467 -1528 0
-1467 -1529 0
-1467 -1530 0
-1468 -1469 0
-1468 -1470 0
-1468 -1471 0
-1468 -1472 0
-1468 -1473 0
-1468 -1474 0
-1468 -1475 0
-1468 -1476 0
-1468 -1477 0
-1468 -1478 0
-1468 -1479 0
-1468 -1480 0
-1468 -1481 0
-1468 -1482 0
-1468 -1483 0
-1468 -1484 0
-1468 -1485 0
-1468 -1486 0
-1468 -1487 0
-1468 -1488 0
-1468 -1489 0
-1468 -1490 0
-1468 -1491 0
-1468 -1492 0
-1468 -1493 0
-1468 -1494 0
-1468 -1495 0
-1468 -1496 0
-1468 -1497 0
-1468 -1498 0
-1468 -1499 0
-1468 -1500 0
-1468 -1501 0
-1468 -1502 0
-1468 -1503 0
-1468 -1504 0
-1468 -1505 0
-1468 -1506 0
-1468 -1507 0
-1468 -1508 0
-1468 -1509 0
-1468 -1510 0
-1468 -1511 0
-1468 -1512 0
-1468 -1513 0
-1468 -1514 0
-1468 -1515 0
-1468 -1516 0
-1468 -1517 0
-1468 -1518 0
-1468 -1519 0
-1468 -1520 0
-1468 -1521 0
-1468 -1522 0
-1468 -1523 0
-1468 -1524 0
-1468 -1525 0
-1468 -1526 0
-1468 -1527 0
-1468 -1528 0
-1468 -1529 0
-1468 -1530 0
-1469 -1470 0
-1469 -1471 0
-1469 -1472 0
-1469 -1473 0
-1469 -1474 0
-1469 -1475 0
-1469 -1476 0
-1469 -1477 0
-1469 -1478 0
-1469 -1479 0
-1469 -1480 0
-1469 -1481 0
-1469 -1482 0
-1469 -1483 0
-1469 -1484 0
-1469 -1485 0
-1469 -1486 0
-1469 -1487 0
-1469 -1488 0
-1469 -1489 0
-1469 -1490 0
-1469 -1491 0
-1469 -1492 0
-1469 -1493 0
-1469 -1494 0
-1469 -1495 0
-1469 -1496 0
-1469 -1497 0
-1469 -1498 0
-1469 -1499 0
-1469 -1500 0
-1469 -1501 0
-1469 -1502 0
-1469 -1503 0
-1469 -1504 0
-1469 -1505 0
-1469 -1506 0
-1469 -1507 0
-1469 -1508 0
-1469 -1509 0
-1469 -1510 0
-1469 -1511 0
-1469 -1512 0
-1469 -1513 0
-1469 -1514 0
-1469 -1515 0
-1469 -1516 0
-1469 -1517 0
-1469 -1518 0
-1469 -1519 0
-1469 -1520 0
-1469 -1521 0
-1469 -1522 0
-1469 -1523 0
-1469 -1524 0
-1469 -1525 0
-1469 -1526 0
-1469 -1527 0
-1469 -1528 0
-1469 -1529 0
-1469 -1530 0
-1470 -1471 0
-1470 -1472 0
-1470 -1473 0
-1470 -1474 0
-1470 -1475 0
-1470 -1476 0
-1470 -1477 0
-1470 -1478 0
-1470 -1479 0
-1470 -1480 0
-1470 -1481 0
-1470 -1482 0
-1470 -1483 0
-1470 -1484 0
-1470 -1485 0
-1470 -1486 0
-1470 -1487 0
-1470 -1488 0
-1470 -1489 0
-1470 -1490 0
-1470 -1491 0
-1470 -1492 0
-1470 -1493 0
-1470 -1494 0
-1470 -1495 0
-1470 -1496 0
-1470 -1497 0
-1470 -1498 0
-1470 -1499 0
-1470 -1500 0
-1470 -1501 0
-1470 -1502 0
-1470 -1503 0
-1470 -1504 0
-1470 -1505 0
-1470 -1506 0
-1470 -1507 0
-1470 -1508 0
-1470 -1509 0
-1470 -1510 0
-1470 -1511 0
-1470 -1512 0
-1470 -1513 0
-1470 -1514 0
-1470 -1515 0
-1470 -1516 0
-1470 -1517 0
-1470 -1518 0
-1470 -1519 0
-1470 -1520 0
-1470 -1521 0
-1470 -1522 0
-1470 -1523 0
-1470 -1524 0
-1470 -1525 0
-1470 -1526 0
-1470 -1527 0
-1470 -1528 0
-1470 -1529 0
-1470 -1530 0
-1471 -1472 0
-1471 -1473 0
-1471 -1474 0
-1471 -1475 0
-1471 -1476 0
-1471 -1477 0
-1471 -1478 0
-1471 -1479 0
-1471 -1480 0
-1471 -1481 0
-1471 -1482 0
-1471 -1483 0
-1471 -1484 0
-1471 -1485 0
-1471 -1486 0
-1471 -1487 0
-1471 -1488 0
-1471 -1489 0
-1471 -1490 0
-1471 -1491 0
-1471 -1492 0
-1471 -1493 0
-1471 -1494 0
-1471 -1495 0
-1471 -1496 0
-1471 -1497 0
-1471 -1498 0
-1471 -1499 0
-1471 -1500 0
-1471 -1501 0
-1471 -1502 0
-1471 -1503 0
-1471 -1504 0
-1471 -1505 0
-1471 -1506 0
-1471 -1507 0
-1471 -1508 0
-1471 -1509 0
-1471 -1510 0
-1471 -1511 0
-1471 -1512 0
-1471 -1513 0
-1471 -1514 0
-1471 -1515 0
-1471 -1516 0
-1471 -1517 0
-1471 -1518 0
-1471 -1519 0
-1471 -1520 0
-1471 -1521 0
-1471 -1522 0
-1471 -1523 0
-1471 -1524 0
-1471 -1525 0
-1471 -1526 0
-1471 -1527 0
-1471 -1528 0
-1471 -1529 0
-1471 -1530 0
-1472 -1473 0
-1472 -1474 0
-1472 -1475 0
-1472 -1476 0
-1472 -1477 0
-1472 -1478 0
-1472 -1479 0
-1472 -1480 0
-1472 -1481 0
-1472 -1482 0
-1472 -1483 0
-1472 -1484 0
-1472 -1485 0
-1472 -1486 0
-1472 -1487 0
-1472 -1488 0
-1472 -1489 0
-1472 -1490 0
-1472 -1491 0
-1472 -1492 0
-1472 -1493 0
-1472 -1494 0
-1472 -1495 0
-1472 -1496 0
-1472 -1497 0
-1472 -1498 0
-1472 -1499 0
-1472 -1500 0
-1472 -1501 0
-1472 -1502 0
-1472 -1503 0
-1472 -1504 0
-1472 -1505 0
-1472 -1506 0
-1472 -1507 0
-1472 -1508 0
-1472 -1509 0
-1472 -1510 0
-1472 -1511 0
-1472 -1512 0
-1472 -1513 0
-1472 -1514 0
-1472 -1515 0
-1472 -1516 0
-1472 -1517 0
-1472 -1518 0
-1472 -1519 0
-1472 -1520 0
-1472 -1521 0
-1472 -1522 0
-1472 -1523 0
-1472 -1524 0
-1472 -1525 0
-1472 -1526 0
-1472 -1527 0
-1472 -1528 0
-1472 -1529 0
-1472 -1530 0
-1473 -1474 0
-1473 -1475 0
-1473 -1476 0
-1473 -1477 0
-1473 -1478 0
-1473 -1479 0
-1473 -1480 0
-1473 -1481 0
-1473 -1482 0
-1473 -1483 0
-1473 -1484 0
-1473 -1485 0
-1473 -1486 0
-1473 -1487 0
-1473 -1488 0
-1473 -1489 0
-1473 -1490 0
-1473 -1491 0
-1473 -1492 0
-1473 -1493 0
-1473 -1494 0
-1473 -1495 0
-1473 -1496 0
-1473 -1497 0
-1473 -1498 0
-1473 -1499 0
-1473 -1500 0
-1473 -1501 0
-1473 -1502 0
-1473 -1503 0
-1473 -1504 0
-1473 -1505 0
-1473 -1506 0
-1473 -1507 0
-1473 -1508 0
-1473 -1509 0
-1473 -1510 0
-1473 -1511 0
-1473 -1512 0
-1473 -1513 0
-1473 -1514 0
-1473 -1515 0
-1473 -1516 0
-1473 -1517 0
-1473 -1518 0
-1473 -1519 0
-1473 -1520 0
-1473 -1521 0
-1473 -1522 0
-1473 -1523 0
-1473 -1524 0
-1473 -1525 0
-1473 -1526 0
-1473 -1527 0
-1473 -1528 0
-1473 -1529 0
-1473 -1530 0
-1474 -1475 0
-1474 -1476 0
-1474 -1477 0
-1474 -1478 0
-1474 -1479 0
-1474 -1480 0
-1474 -1481 0
-1474 -1482 0
-1474 -1483 0
-1474 -1484 0
-1474 -1485 0
-1474 -1486 0
-1474 -1487 0
-1474 -1488 0
-1474 -1489 0
-1474 -1490 0
-1474 -1491 0
-1474 -1492 0
-1474 -1493 0
-1474 -1494 0
-1474 -1495 0
-1474 -1496 0
-1474 -1497 0
-1474 -1498 0
-1474 -1499 0
-1474 -1500 0
-1474 -1501 0
-1474 -1502 0
-1474 -1503 0
-1474 -1504 0
-1474 -1505 0
-1474 -1506 0
-1474 -1507 0
-1474 -1508 0
-1474 -1509 0
-1474 -1510 0
-1474 -1511 0
-1474 -1512 0
-1474 -1513 0
-1474 -1514 0
-1474 -1515 0
-1474 -1516 0
-1474 -1517 0
-1474 -1518 0
-1474 -1519 0
-1474 -1520 0
-1474 -1521 0
-1474 -1522 0
-1474 -1523 0
-1474 -1524 0
-1474 -1525 0
-1474 -1526 0
-1474 -1527 0
-1474 -1528 0
-1474 -1529 0
-1474 -1530 0
-1475 -1476 0
-1475 -1477 0
-1475 -1478 0
-1475 -1479 0
-1475 -1480 0
-1475 -1481 0
-1475 -1482 0
-1475 -1483 0
-1475 -1484 0
-1475 -1485 0
-1475 -1486 0
-1475 -1487 0
-1475 -1488 0
-1475 -1489 0
-1475 -1490 0
-1475 -1491 0
-1475 -1492 0
-1475 -1493 0
-1475 -1494 0
-1475 -1495 0
-1475 -1496 0
-1475 -1497 0
-1475 -1498 0
-1475 -1499 0
-1475 -1500 0
-1475 -1501 0
-1475 -1502 0
-1475 -1503 0
-1475 -1504 0
-1475 -1505 0
-1475 -1506 0
-1475 -1507 0
-1475 -1508 0
-1475 -1509 0
-1475 -1510 0
-1475 -1511 0
-1475 -1512 0
-1475 -1513 0
-1475 -1514 0
-1475 -1515 0
-1475 -1516 0
-1475 -1517 0
-1475 -1518 0
-1475 -1519 0
-1475 -1520 0
-1475 -1521 0
-1475 -1522 0
-1475 -1523 0
-1475 -1524 0
-1475 -1525 0
-1475 -1526 0
-1475 -1527 0
-1475 -1528 0
-1475 -1529 0
-1475 -1530 0
-1476 -1477 0
-1476 -1478 0
-1476 -1479 0
-1476 -1480 0
-1476 -1481 0
-1476 -1482 0
-1476 -1483 0
-1476 -1484 0
-1476 -1485 0
-1476 -1486 0
-1476 -1487 0
-1476 -1488 0
-1476 -1489 0
-1476 -1490 0
-1476 -1491 0
-1476 -1492 0
-1476 -1493 0
-1476 -1494 0
-1476 -1495 0
-1476 -1496 0
-1476 -1497 0
-1476 -1498 0
-1476 -1499 0
-1476 -1500 0
-1476 -1501 0
-1476 -1502 0
-1476 -1503 0
-1476 -1504 0
-1476 -1505 0
-1476 -1506 0
-1476 -1507 0
-1476 -1508 0
-1476 -1509 0
-1476 -1510 0
-1476 -1511 0
-1476 -1512 0
-1476 -1513 0
-1476 -1514 0
-1476 -1515 0
-1476 -1516 0
-1476 -1517 0
-1476 -1518 0
-1476 -1519 0
-1476 -1520 0
-1476 -1521 0
-1476 -1522 0
-1476 -1523 0
-1476 -1524 0
-1476 -1525 0
-1476 -1526 0
-1476 -1527 0
-1476 -1528 0
-1476 -1529 0
-1476 -1530 0
-1477 -1478 0
-1477 -1479 0
-1477 -1480 0
-1477 -1481 0
-1477 -1482 0
-1477 -1483 0
-1477 -1484 0
-1477 -1485 0
-1477 -1486 0
-1477 -1487 0
-1477 -1488 0
-1477 -1489 0
-1477 -1490 0
-1477 -1491 0
-1477 -1492 0
-1477 -1493 0
-1477 -1494 0
-1477 -1495 0
-1477 -1496 0
-1477 -1497 0
-1477 -1498 0
-1477 -1499 0
-1477 -1500 0
-1477 -1501 0
-1477 -1502 0
-1477 -1503 0
-1477 -1504 0
-1477 -1505 0
-1477 -1506 0
-1477 -1507 0
-1477 -1508 0
-1477 -1509 0
-1477 -1510 0
-1477 -1511 0
-1477 -1512 0
-1477 -1513 0
-1477 -1514 0
-1477 -1515 0
-1477 -1516 0
-1477 -1517 0
-1477 -1518 0
-1477 -1519 0
-1477 -1520 0
-1477 -1521 0
-1477 -1522 0
-1477 -1523 0
-1477 -1524 0
-1477 -1525 0
-1477 -1526 0
-1477 -1527 0
-1477 -1528 0
-1477 -1529 0
-1477 -1530 0
-1478 -1479 0
-1478 -1480 0
-1478 -1481 0
-1478 -1482 0
-1478 -1483 0
-1478 -1484 0
-1478 -1485 0
-1478 -1486 0
-1478 -1487 0
-1478 -1488 0
-1478 -1489 0
-1478 -1490 0
-1478 -1491 0
-1478 -1492 0
-1478 -1493 0
-1478 -1494 0
-1478 -1495 0
-1478 -1496 0
-1478 -1497 0
-1478 -1498 0
-1478 -1499 0
-1478 -1500 0
-1478 -1501 0
-1478 -1502 0
-1478 -1503 0
-1478 -1504 0
-1478 -1505 0
-1478 -1506 0
-1478 -1507 0
-1478 -1508 0
-1478 -1509 0
-1478 -1510 0
-1478 -1511 0
-1478 -1512 0
-1478 -1513 0
-1478 -1514 0
-1478 -1515 0
-1478 -1516 0
-1478 -1517 0
-1478 -1518 0
-1478 -1519 0
-1478 -1520 0
-1478 -1521 0
-1478 -1522 0
-1478 -1523 0
-1478 -1524 0
-1478 -1525 0
-1478 -1526 0
-1478 -1527 0
-1478 -1528 0
-1478 -1529 0
-1478 -1530 0
-1479 -1480 0
-1479 -1481 0
-1479 -1482 0
-1479 -1483 0
-1479 -1484 0
-1479 -1485 0
-1479 -1486 0
-1479 -1487 0
-1479 -1488 0
-1479 -1489 0
-1479 -1490 0
-1479 -1491 0
-1479 -1492 0
-1479 -1493 0
-1479 -1494 0
-1479 -1495 0
-1479 -1496 0
-1479 -1497 0
-1479 -1498 0
-1479 -1499 0
-1479 -1500 0
-1479 -1501 0
-1479 -1502 0
-1479 -1503 0
-1479 -1504 0
-1479 -1505 0
-1479 -1506 0
-1479 -1507 0
-1479 -1508 0
-1479 -1509 0
-1479 -1510 0
-1479 -1511 0
-1479 -1512 0
-1479 -1513 0
-1479 -1514 0
-1479 -1515 0
-1479 -1516 0
-1479 -1517 0
-1479 -1518 0
-1479 -1519 0
-1479 -1520 0
-1479 -1521 0
-1479 -1522 0
-1479 -1523 0
-1479 -1524 0
-1479 -1525 0
-1479 -1526 0
-1479 -1527 0
-1479 -1528 0
-1479 -1529 0
-1479 -1530 0
-1480 -1481 0
-1480 -1482 0
-1480 -1483 0
-1480 -1484 0
-1480 -1485 0
-1480 -1486 0
-1480 -1487 0
-1480 -1488 0
-1480 -1489 0
-1480 -1490 0
-1480 -1491 0
-1480 -1492 0
-1480 -1493 0
-1480 -1494 0
-1480 -1495 0
-1480 -1496 0
-1480 -1497 0
-1480 -1498 0
-1480 -1499 0
-1480 -1500 0
-1480 -1501 0
-1480 -1502 0
-1480 -1503 0
-1480 -1504 0
-1480 -1505 0
-1480 -1506 0
-1480 -1507 0
-1480 -1508 0
-1480 -1509 0
-1480 -1510 0
-1480 -1511 0
-1480 -1512 0
-1480 -1513 0
-1480 -1514 0
-1480 -1515 0
-1480 -1516 0
-1480 -1517 0
-1480 -1518 0
-1480 -1519 0
-1480 -1520 0
-1480 -1521 0
-1480 -1522 0
-1480 -1523 0
-1480 -1524 0
-1480 -1525 0
-1480 -1526 0
-1480 -1527 0
-1480 -1528 0
-1480 -1529 0
-1480 -1530 0
-1481 -1482 0
-1481 -1483 0
-1481 -1484 0
-1481 -1485 0
-1481 -1486 0
-1481 -1487 0
-1481 -1488 0
-1481 -1489 0
-1481 -1490 0
-1481 -1491 0
-1481 -1492 0
-1481 -1493 0
-1481 -1494 0
-1481 -1495 0
-1481 -1496 0
-1481 -1497 0
-1481 -1498 0
-1481 -1499 0
-1481 -1500 0
-1481 -1501 0
-1481 -1502 0
-1481 -1503 0
-1481 -1504 0
-1481 -1505 0
-1481 -1506 0
-1481 -1507 0
-1481 -1508 0
-1481 -1509 0
-1481 -1510 0
-1481 -1511 0
-1481 -1512 0
-1481 -1513 0
-1481 -1514 0
-1481 -1515 0
-1481 -1516 0
-1481 -1517 0
-1481 -1518 0
-1481 -1519 0
-1481 -1520 0
-1481 -1521 0
-1481 -1522 0
-1481 -1523 0
-1481 -1524 0
-1481 -1525 0
-1481 -1526 0
-1481 -1527 0
-1481 -1528 0
-1481 -1529 0
-1481 -1530 0
-1482 -1483 0
-1482 -1484 0
-1482 -1485 0
-1482 -1486 0
-1482 -1487 0
-1482 -1488 0
-1482 -1489 0
-1482 -1490 0
-1482 -1491 0
-1482 -1492 0
-1482 -1493 0
-1482 -1494 0
-1482 -1495 0
-1482 -1496 0
-1482 -1497 0
-1482 -1498 0
-1482 -1499 0
-1482 -1500 0
-1482 -1501 0
-1482 -1502 0
-1482 -1503 0
-1482 -1504 0
-1482 -1505 0
-1482 -1506 0
-1482 -1507 0
-1482 -1508 0
-1482 -1509 0
-1482 -1510 0
-1482 -1511 0
-1482 -1512 0
-1482 -1513 0
-1482 -1514 0
-1482 -1515 0
-1482 -1516 0
-1482 -1517 0
-1482 -1518 0
-1482 -1519 0
-1482 -1520 0
-1482 -1521 0
-1482 -1522 0
-1482 -1523 0
-1482 -1524 0
-1482 -1525 0
-1482 -1526 0
-1482 -1527 0
-1482 -1528 0
-1482 -1529 0
-1482 -1530 0
-1483 -1484 0
-1483 -1485 0
-1483 -1486 0
-1483 -1487 0
-1483 -1488 0
-1483 -1489 0
-1483 -1490 0
-1483 -1491 0
-1483 -1492 0
-1483 -1493 0
-1483 -1494 0
-1483 -1495 0
-1483 -1496 0
-1483 -1497 0
-1483 -1498 0
-1483 -1499 0
-1483 -1500 0
-1483 -1501 0
-1483 -1502 0
-1483 -1503 0
-1483 -1504 0
-1483 -1505 0
-1483 -1506 0
-1483 -1507 0
-1483 -1508 0
-1483 -1509 0
-1483 -1510 0
-1483 -1511 0
-1483 -1512 0
-1483 -1513 0
-1483 -1514 0
-1483 -1515 0
-1483 -1516 0
-1483 -1517 0
-1483 -1518 0
-1483 -1519 0
-1483 -1520 0
-1483 -1521 0
-1483 -1522 0
-1483 -1523 0
-1483 -1524 0
-1483 -1525 0
-1483 -1526 0
-1483 -1527 0
-1483 -1528 0
-1483 -1529 0
-1483 -1530 0
-1484 -1485 0
-1484 -1486 0
-1484 -1487 0
-1484 -1488 0
-1484 -1489 0
-1484 -1490 0
-1484 -1491 0
-1484 -1492 0
-1484 -1493 0
-1484 -1494 0
-1484 -1495 0
-1484 -1496 0
-1484 -1497 0
-1484 -1498 0
-1484 -1499 0
-1484 -1500 0
-1484 -1501 0
-1484 -1502 0
-1484 -1503 0
-1484 -1504 0
-1484 -1505 0
-1484 -1506 0
-1484 -1507 0
-1484 -1508 0
-1484 -1509 0
-1484 -1510 0
-1484 -1511 0
-1484 -1512 0
-1484 -1513 0
-1484 -1514 0
-1484 -1515 0
-1484 -1516 0
-1484 -1517 0
-1484 -1518 0
-1484 -1519 0
-1484 -1520 0
-1484 -1521 0
-1484 -1522 0
-1484 -1523 0
-1484 -1524 0
-1484 -1525 0
-1484 -1526 0
-1484 -1527 0
-1484 -1528 0
-1484 -1529 0
-1484 -1530 0
-1485 -1486 0
-1485 -1487 0
-1485 -1488 0
-1485 -1489 0
-1485 -1490 0
-1485 -1491 0
-1485 -1492 0
-1485 -1493 0
-1485 -1494 0
-1485 -1495 0
-1485 -1496 0
-1485 -1497 0
-1485 -1498 0
-1485 -1499 0
-1485 -1500 0
-1485 -1501 0
-1485 -1502 0
-1485 -1503 0
-1485 -1504 0
-1485 -1505 0
-1485 -1506 0
-1485 -1507 0
-1485 -1508 0
-1485 -1509 0
-1485 -1510 0
-1485 -1511 0
-1485 -1512 0
-1485 -1513 0
-1485 -1514 0
-1485 -1515 0
-1485 -1516 0
-1485 -1517 0
-1485 -1518 0
-1485 -1519 0
-1485 -1520 0
-1485 -1521 0
-1485 -1522 0
-1485 -1523 0
-1485 -1524 0
-1485 -1525 0
-1485 -1526 0
-1485 -1527 0
-1485 -1528 0
-1485 -1529 0
-1485 -1530 0
-1486 -1487 0
-1486 -1488 0
-1486 -1489 0
-1486 -1490 0
-1486 -1491 0
-1486 -1492 0
-1486 -1493 0
-1486 -1494 0
-1486 -1495 0
-1486 -1496 0
-1486 -1497 0
-1486 -1498 0
-1486 -1499 0
-1486 -1500 0
-1486 -1501 0
-1486 -1502 0
-1486 -1503 0
-1486 -1504 0
-1486 -1505 0
-1486 -1506 0
-1486 -1507 0
-1486 -1508 0
-1486 -1509 0
-1486 -1510 0
-1486 -1511 0
-1486 -1512 0
-1486 -1513 0
-1486 -1514 0
-1486 -1515 0
-1486 -1516 0
-1486 -1517 0
-1486 -1518 0
-1486 -1519 0
-1486 -1520 0
-1486 -1521 0
-1486 -1522 0
-1486 -1523 0
-1486 -1524 0
-1486 -1525 0
-1486 -1526 0
-1486 -1527 0
-1486 -1528 0
-1486 -1529 0
-1486 -1530 0
-1487 -1488 0
-1487 -1489 0
-1487 -1490 0
-1487 -1491 0
-1487 -1492 0
-1487 -1493 0
-1487 -1494 0
-1487 -1495 0
-1487 -1496 0
-1487 -1497 0
-1487 -1498 0
-1487 -1499 0
-1487 -1500 0
-1487 -1501 0
-1487 -1502 0
-1487 -1503 0
-1487 -1504 0
-1487 -1505 0
-1487 -1506 0
-1487 -1507 0
-1487 -1508 0
-1487 -1509 0
-1487 -1510 0
-1487 -1511 0
-1487 -1512 0
-1487 -1513 0
-1487 -1514 0
-1487 -1515 0
-1487 -1516 0
-1487 -1517 0
-1487 -1518 0
-1487 -1519 0
-1487 -1520 0
-1487 -1521 0
-1487 -1522 0
-1487 -1523 0
-1487 -1524 0
-1487 -1525 0
-1487 -1526 0
-1487 -1527 0
-1487 -1528 0
-1487 -1529 0
-1487 -1530 0
-1488 -1489 0
-1488 -1490 0
-1488 -1491 0
-1488 -1492 0
-1488 -1493 0
-1488 -1494 0
-1488 -1495 0
-1488 -1496 0
-1488 -1497 0
-1488 -1498 0
-1488 -1499 0
-1488 -1500 0
-1488 -1501 0
-1488 -1502 0
-1488 -1503 0
-1488 -1504 0
-1488 -1505 0
-1488 -1506 0
-1488 -1507 0
-1488 -1508 0
-1488 -1509 0
-1488 -1510 0
-1488 -1511 0
-1488 -1512 0
-1488 -1513 0
-1488 -1514 0
-1488 -1515 0
-1488 -1516 0
-1488 -1517 0
-1488 -1518 0
-1488 -1519 0
-1488 -1520 0
-1488 -1521 0
-1488 -1522 0
-1488 -1523 0
-1488 -1524 0
-1488 -1525 0
-1488 -1526 0
-1488 -1527 0
-1488 -1528 0
-1488 -1529 0
-1488 -1530 0
-1489 -1490 0
-1489 -1491 0
-1489 -1492 0
-1489 -1493 0
-1489 -1494 0
-1489 -1495 0
-1489 -1496 0
-1489 -1497 0
-1489 -1498 0
-1489 -1499 0
-1489 -1500 0
-1489 -1501 0
-1489 -1502 0
-1489 -1503 0
-1489 -1504 0
-1489 -1505 0
-1489 -1506 0
-1489 -1507 0
-1489 -1508 0
-1489 -1509 0
-1489 -1510 0
-1489 -1511 0
-1489 -1512 0
-1489 -1513 0
-1489 -1514 0
-1489 -1515 0
-1489 -1516 0
-1489 -1517 0
-1489 -1518 0
-1489 -1519 0
-1489 -1520 0
-1489 -1521 0
-1489 -1522 0
-1489 -1523 0
-1489 -1524 0
-1489 -1525 0
-1489 -1526 0
-1489 -1527 0
-1489 -1528 0
-1489 -1529 0
-1489 -1530 0
-1490 -1491 0
-1490 -1492 0
-1490 -1493 0
-1490 -1494 0
-1490 -1495 0
-1490 -1496 0
-1490 -1497 0
-1490 -1498 0
-1490 -1499 0
-1490 -1500 0
-1490 -1501 0
-1490 -1502 0
-1490 -1503 0
-1490 -1504 0
-1490 -1505 0
-1490 -1506 0
-1490 -1507 0
-1490 -1508 0
-1490 -1509 0
-1490 -1510 0
-1490 -1511 0
-1490 -1512 0
-1490 -1513 0
-1490 -1514 0
-1490 -1515 0
-1490 -1516 0
-1490 -1517 0
-1490 -1518 0
-1490 -1519 0
-1490 -1520 0
-1490 -1521 0
-1490 -1522 0
-1490 -1523 0
-1490 -1524 0
-1490 -1525 0
-1490 -1526 0
-1490 -1527 0
-1490 -1528 0
-1490 -1529 0
-1490 -1530 0
-1491 -1492 0
-1491 -1493 0
-1491 -1494 0
-1491 -1495 0
-1491 -1496 0
-1491 -1497 0
-1491 -1498 0
-1491 -1499 0
-1491 -1500 0
-1491 -1501 0
-1491 -1502 0
-1491 -1503 0
-1491 -1504 0
-1491 -1505 0
-1491 -1506 0
-1491 -1507 0
-1491 -1508 0
-1491 -1509 0
-1491 -1510 0
-1491 -1511 0
-1491 -1512 0
-1491 -1513 0
-1491 -1514 0
-1491 -1515 0
-1491 -1516 0
-1491 -1517 0
-1491 -1518 0
-1491 -1519 0
-1491 -1520 0
-1491 -1521 0
-1491 -1522 0
-1491 -1523 0
-1491 -1524 0
-1491 -1525 0
-1491 -1526 0
-1491 -1527 0
-1491 -1528 0
-1491 -1529 0
-1491 -1530 0
-1492 -1493 0
-1492 -1494 0
-1492 -1495 0
-1492 -1496 0
-1492 -1497 0
-1492 -1498 0
-1492 -1499 0
-1492 -1500 0
-1492 -1501 0
-1492 -1502 0
-1492 -1503 0
-1492 -1504 0
-1492 -1505 0
-1492 -1506 0
-1492 -1507 0
-1492 -1508 0
-1492 -1509 0
-1492 -1510 0
-1492 -1511 0
-1492 -1512 0
-1492 -1513 0
-1492 -1514 0
-1492 -1515 0
-1492 -1516 0
-1492 -1517 0
-1492 -1518 0
-1492 -1519 0
-1492 -1520 0
-1492 -1521 0
-1492 -1522 0
-1492 -1523 0
-1492 -1524 0
-1492 -1525 0
-1492 -1526 0
-1492 -1527 0
-1492 -1528 0
-1492 -1529 0
-1492 -1530 0
-1493 -1494 0
-1493 -1495 0
-1493 -1496 0
-1493 -1497 0
-1493 -1498 0
-1493 -1499 0
-1493 -1500 0
-1493 -1501 0
-1493 -1502 0
-1493 -1503 0
-1493 -1504 0
-1493 -1505 0
-1493 -1506 0
-1493 -1507 0
-1493 -1508 0
-1493 -1509 0
-1493 -1510 0
-1493 -1511 0
-1493 -1512 0
-1493 -1513 0
-1493 -1514 0
-1493 -1515 0
-1493 -1516 0
-1493 -1517 0
-1493 -1518 0
-1493 -1519 0
-1493 -1520 0
-1493 -1521 0
-1493 -1522 0
-1493 -1523 0
-1493 -1524 0
-1493 -1525 0
-1493 -1526 0
-1493 -1527 0
-1493 -1528 0
-1493 -1529 0
-1493 -1530 0
-1494 -1495 0
-1494 -1496 0
-1494 -1497 0
-1494 -1498 0
-1494 -1499 0
-1494 -1500 0
-1494 -1501 0
-1494 -1502 0
-1494 -1503 0
-1494 -1504 0
-1494 -1505 0
-1494 -1506 0
-1494 -1507 0
-1494 -1508 0
-1494 -1509 0
-1494 -1510 0
-1494 -1511 0
-1494 -1512 0
-1494 -1513 0
-1494 -1514 0
-1494 -1515 0
-1494 -1516 0
-1494 -1517 0
-1494 -1518 0
-1494 -1519 0
-1494 -1520 0
-1494 -1521 0
-1494 -1522 0
-1494 -1523 0
-1494 -1524 0
-1494 -1525 0
-1494 -1526 0
-1494 -1527 0
-1494 -1528 0
-1494 -1529 0
-1494 -1530 0
-1495 -1496 0
-1495 -1497 0
-1495 -1498 0
-1495 -1499 0
-1495 -1500 0
-1495 -1501 0
-1495 -1502 0
-1495 -1503 0
-1495 -1504 0
-1495 -1505 0
-1495 -1506 0
-1495 -1507 0
-1495 -1508 0
-1495 -1509 0
-1495 -1510 0
-1495 -1511 0
-1495 -1512 0
-1495 -1513 0
-1495 -1514 0
-1495 -1515 0
-1495 -1516 0
-1495 -1517 0
-1495 -1518 0
-1495 -1519 0
-1495 -1520 0
-1495 -1521 0
-1495 -1522 0
-1495 -1523 0
-1495 -1524 0
-1495 -1525 0
-1495 -1526 0
-1495 -1527 0
-1495 -1528 0
-1495 -1529 0
-1495 -1530 0
-1496 -1497 0
-1496 -1498 0
-1496 -1499 0
-1496 -1500 0
-1496 -1501 0
-1496 -1502 0
-1496 -1503 0
-1496 -1504 0
-1496 -1505 0
-1496 -1506 0
-1496 -1507 0
-1496 -1508 0
-1496 -1509 0
-1496 -1510 0
-1496 -1511 0
-1496 -1512 0
-1496 -1513 0
-1496 -1514 0
-1496 -1515 0
-1496 -1516 0
-1496 -1517 0
-1496 -1518 0
-1496 -1519 0
-1496 -1520 0
-1496 -1521 0
-1496 -1522 0
-1496 -1523 0
-1496 -1524 0
-1496 -1525 0
-1496 -1526 0
-1496 -1527 0
-1496 -1528 0
-1496 -1529 0
-1496 -1530 0
-1497 -1498 0
-1497 -1499 0
-1497 -1500 0
-1497 -1501 0
-1497 -1502 0
-1497 -1503 0
-1497 -1504 0
-1497 -1505 0
-1497 -1506 0
-1497 -1507 0
-1497 -1508 0
-1497 -1509 0
-1497 -1510 0
-1497 -1511 0
-1497 -1512 0
-1497 -1513 0
-1497 -1514 0
-1497 -1515 0
-1497 -1516 0
-1497 -1517 0
-1497 -1518 0
-1497 -1519 0
-1497 -1520 0
-1497 -1521 0
-1497 -1522 0
-1497 -1523 0
-1497 -1524 0
-1497 -1525 0
-1497 -1526 0
-1497 -1527 0
-1497 -1528 0
-1497 -1529 0
-1497 -1530 0
-1498 -1499 0
-1498 -1500 0
-1498 -1501 0
-1498 -1502 0
-1498 -1503 0
-1498 -1504 0
-1498 -1505 0
-1498 -1506 0
-1498 -1507 0
-1498 -1508 0
-1498 -1509 0
-1498 -1510 0
-1498 -1511 0
-1498 -1512 0
-1498 -1513 0
-1498 -1514 0
-1498 -1515 0
-1498 -1516 0
-1498 -1517 0
-1498 -1518 0
-1498 -1519 0
-1498 -1520 0
-1498 -1521 0
-1498 -1522 0
-1498 -1523 0
-1498 -1524 0
-1498 -1525 0
-1498 -1526 0
-1498 -1527 0
-1498 -1528 0
-1498 -1529 0
-1498 -1530 0
-1499 -1500 0
-1499 -1501 0
-1499 -1502 0
-1499 -1503 0
-1499 -1504 0
-1499 -1505 0
-1499 -1506 0
-1499 -1507 0
-1499 -1508 0
-1499 -1509 0
-1499 -1510 0
-1499 -1511 0
-1499 -1512 0
-1499 -1513 0
-1499 -1514 0
-1499 -1515 0
-1499 -1516 0
-1499 -1517 0
-1499 -1518 0
-1499 -1519 0
-1499 -1520 0
-1499 -1521 0
-1499 -1522 0
-1499 -1523 0
-1499 -1524 0
-1499 -1525 0
-1499 -1526 0
-1499 -1527 0
-1499 -1528 0
-1499 -1529 0
-1499 -1530 0
-1500 -1501 0
-1500 -1502 0
-1500 -1503 0
-1500 -1504 0
-1500 -1505 0
-1500 -1506 0
-1500 -1507 0
-1500 -1508 0
-1500 -1509 0
-1500 -1510 0
-1500 -1511 0
-1500 -1512 0
-1500 -1513 0
-1500 -1514 0
-1500 -1515 0
-1500 -1516 0
-1500 -1517 0
-1500 -1518 0
-1500 -1519 0
-1500 -1520 0
-1500 -1521 0
-1500 -1522 0
-1500 -1523 0
-1500 -1524 0
-1500 -1525 0
-1500 -1526 0
-1500 -1527 0
-1500 -1528 0
-1500 -1529 0
-1500 -1530 0
-1501 -1502 0
-1501 -1503 0
-1501 -1504 0
-1501 -1505 0
-1501 -1506 0
-1501 -1507 0
-1501 -1508 0
-1501 -1509 0
-1501 -1510 0
-1501 -1511 0
-1501 -1512 0
-1501 -1513 0
-1501 -1514 0
-1501 -1515 0
-1501 -1516 0
-1501 -1517 0
-1501 -1518 0
-1501 -1519 0
-1501 -1520 0
-1501 -1521 0
-1501 -1522 0
-1501 -1523 0
-1501 -1524 0
-1501 -1525 0
-1501 -1526 0
-1501 -1527 0
-1501 -1528 0
-1501 -1529 0
-1501 -1530 0
-1502 -1503 0
-1502 -1504 0
-1502 -1505 0
-1502 -1506 0
-1502 -1507 0
-1502 -1508 0
-1502 -1509 0
-1502 -1510 0
-1502 -1511 0
-1502 -1512 0
-1502 -1513 0
-1502 -1514 0
-1502 -1515 0
-1502 -1516 0
-1502 -1517 0
-1502 -1518 0
-1502 -1519 0
-1502 -1520 0
-1502 -1521 0
-1502 -1522 0
-1502 -1523 0
-1502 -1524 0
-1502 -1525 0
-1502 -1526 0
-1502 -1527 0
-1502 -1528 0
-1502 -1529 0
-1502 -1530 0
-1503 -1504 0
-1503 -1505 0
-1503 -1506 0
-1503 -1507 0
-1503 -1508 0
-1503 -1509 0
-1503 -1510 0
-1503 -1511 0
-1503 -1512 0
-1503 -1513 0
-1503 -1514 0
-1503 -1515 0
-1503 -1516 0
-1503 -1517 0
-1503 -1518 0
-1503 -1519 0
-1503 -1520 0
-1503 -1521 0
-1503 -1522 0
-1503 -1523 0
-1503 -1524 0
-1503 -1525 0
-1503 -1526 0
-1503 -1527 0
-1503 -1528 0
-1503 -1529 0
-1503 -1530 0
-1504 -1505 0
-1504 -1506 0
-1504 -1507 0
-1504 -1508 0
-1504 -1509 0
-1504 -1510 0
-1504 -1511 0
-1504 -1512 0
-1504 -1513 0
-1504 -1514 0
-1504 -1515 0
-1504 -1516 0
-1504 -1517 0
-1504 -1518 0
-1504 -1519 0
-1504 -1520 0
-1504 -1521 0
-1504 -1522 0
-1504 -1523 0
-1504 -1524 0
-1504 -1525 0
-1504 -1526 0
-1504 -1527 0
-1504 -1528 0
-1504 -1529 0
-1504 -1530 0
-1505 -1506 0
-1505 -1507 0
-1505 -1508 0
-1505 -1509 0
-1505 -1510 0
-1505 -1511 0
-1505 -1512 0
-1505 -1513 0
-1505 -1514 0
-1505 -1515 0
-1505 -1516 0
-1505 -1517 0
-1505 -1518 0
-1505 -1519 0
-1505 -1520 0
-1505 -1521 0
-1505 -1522 0
-1505 -1523 0
-1505 -1524 0
-1505 -1525 0
-1505 -1526 0
-1505 -1527 0
-1505 -1528 0
-1505 -1529 0
-1505 -1530 0
-1506 -1507 0
-1506 -1508 0
-1506 -1509 0
-1506 -1510 0
-1506 -1511 0
-1506 -1512 0
-1506 -1513 0
-1506 -1514 0
-1506 -1515 0
-1506 -1516 0
-1506 -1517 0
-1506 -1518 0
-1506 -1519 0
-1506 -1520 0
-1506 -1521 0
-1506 -1522 0
-1506 -1523 0
-1506 -1524 0
-1506 -1525 0
-1506 -1526 0
-1506 -1527 0
-1506 -1528 0
-1506 -1529 0
-1506 -1530 0
-1507 -1508 0
-1507 -1509 0
-1507 -1510 0
-1507 -1511 0
-1507 -1512 0
-1507 -1513 0
-1507 -1514 0
-1507 -1515 0
-1507 -1516 0
-1507 -1517 0
-1507 -1518 0
-1507 -1519 0
-1507 -1520 0
-1507 -1521 0
-1507 -1522 0
-1507 -1523 0
-1507 -1524 0
-1507 -1525 0
-1507 -1526 0
-1507 -1527 0
-1507 -1528 0
-1507 -1529 0
-1507 -1530 0
-1508 -1509 0
-1508 -1510 0
-1508 -1511 0
-1508 -1512 0
-1508 -1513 0
-1508 -1514 0
-1508 -1515 0
-1508 -1516 0
-1508 -1517 0
-1508 -1518 0
-1508 -1519 0
-1508 -1520 0
-1508 -1521 0
-1508 -1522 0
-1508 -1523 0
-1508 -1524 0
-1508 -1525 0
-1508 -1526 0
-1508 -1527 0
-1508 -1528 0
-1508 -1529 0
-1508 -1530 0
-1509 -1510 0
-1509 -1511 0
-1509 -1512 0
-1509 -1513 0
-1509 -1514 0
-1509 -1515 0
-1509 -1516 0
-1509 -1517 0
-1509 -1518 0
-1509 -1519 0
-1509 -1520 0
-1509 -1521 0
-1509 -1522 0
-1509 -1523 0
-1509 -1524 0
-1509 -1525 0
-1509 -1526 0
-1509 -1527 0
-1509 -1528 0
-1509 -1529 0
-1509 -1530 0
-1510 -1511 0
-1510 -1512 0
-1510 -1513 0
-1510 -1514 0
-1510 -1515 0
-1510 -1516 0
-1510 -1517 0
-1510 -1518 0
-1510 -1519 0
-1510 -1520 0
-1510 -1521 0
-1510 -1522 0
-1510 -1523 0
-1510 -1524 0
-1510 -1525 0
-1510 -1526 0
-1510 -1527 0
-1510 -1528 0
-1510 -1529 0
-1510 -1530 0
-1511 -1512 0
-1511 -1513 0
-1511 -1514 0
-1511 -1515 0
-1511 -1516 0
-1511 -1517 0
-1511 -1518 0
-1511 -1519 0
-1511 -1520 0
-1511 -1521 0
-1511 -1522 0
-1511 -1523 0
-1511 -1524 0
-1511 -1525 0
-1511 -1526 0
-1511 -1527 0
-1511 -1528 0
-1511 -1529 0
-1511 -1530 0
-1512 -1513 0
-1512 -1514 0
-1512 -1515 0
-1512 -1516 0
-1512 -1517 0
-1512 -1518 0
-1512 -1519 0
-1512 -1520 0
-1512 -1521 0
-1512 -1522 0
-1512 -1523 0
-1512 -1524 0
-1512 -1525 0
-1512 -1526 0
-1512 -1527 0
-1512 -1528 0
-1512 -1529 0
-1512 -1530 0
-1513 -1514 0
-1513 -1515 0
-1513 -1516 0
-1513 -1517 0
-1513 -1518 0
-1513 -1519 0
-1513 -1520 0
-1513 -1521 0
-1513 -1522 0
-1513 -1523 0
-1513 -1524 0
-1513 -1525 0
-1513 -1526 0
-1513 -1527 0
-1513 -1528 0
-1513 -1529 0
-1513 -1530 0
-1514 -1515 0
-1514 -1516 0
-1514 -1517 0
-1514 -1518 0
-1514 -1519 0
-1514 -1520 0
-1514 -1521 0
-1514 -1522 0
-1514 -1523 0
-1514 -1524 0
-1514 -1525 0
-1514 -1526 0
-1514 -1527 0
-1514 -1528 0
-1514 -1529 0
-1514 -1530 0
-1515 -1516 0
-1515 -1517 0
-1515 -1518 0
-1515 -1519 0
-1515 -1520 0
-1515 -1521 0
-1515 -1522 0
-1515 -1523 0
-1515 -1524 0
-1515 -1525 0
-1515 -1526 0
-1515 -1527 0
-1515 -1528 0
-1515 -1529 0
-1515 -1530 0
-1516 -1517 0
-1516 -1518 0
-1516 -1519 0
-1516 -1520 0
-1516 -1521 0
-1516 -1522 0
-1516 -1523 0
-1516 -1524 0
-1516 -1525 0
-1516 -1526 0
-1516 -1527 0
-1516 -1528 0
-1516 -1529 0
-1516 -1530 0
-1517 -1518 0
-1517 -1519 0
-1517 -1520 0
-1517 -1521 0
-1517 -1522 0
-1517 -1523 0
-1517 -1524 0
-1517 -1525 0
-1517 -1526 0
-1517 -1527 0
-1517 -1528 0
-1517 -1529 0
-1517 -1530 0
-1518 -1519 0
-1518 -1520 0
-1518 -1521 0
-1518 -1522 0
-1518 -1523 0
-1518 -1524 0
-1518 -1525 0
-1518 -1526 0
-1518 -1527 0
-1518 -1528 0
-1518 -1529 0
-1518 -1530 0
-1519 -1520 0
-1519 -1521 0
-1519 -1522 0
-1519 -1523 0
-1519 -1524 0
-1519 -1525 0
-1519 -1526 0
-1519 -1527 0
-1519 -1528 0
-1519 -1529 0
-1519 -1530 0
-1520 -1521 0
-1520 -1522 0
-1520 -1523 0
-1520 -1524 0
-1520 -1525 0
-1520 -1526 0
-1520 -1527 0
-1520 -1528 0
-1520 -1529 0
-1520 -1530 0
-1521 -1522 0
-1521 -1523 0
-1521 -1524 0
-1521 -1525 0
-1521 -1526 0
-1521 -1527 0
-1521 -1528 0
-1521 -1529 0
-1521 -1530 0
-1522 -1523 0
-1522 -1524 0
-1522 -1525 0
-1522 -1526 0
-1522 -1527 0
-1522 -1528 0
-1522 -1529 0
-1522 -1530 0
-1523 -1524 0
-1523 -1525 0
-1523 -1526 0
-1523 -1527 0
-1523 -1528 0
-1523 -1529 0
-1523 -1530 0
-1524 -1525 0
-1524 -1526 0
-1524 -1527 0
-1524 -1528 0
-1524 -1529 0
-1524 -1530 0
-1525 -1526 0
-1525 -1527 0
-1525 -1528 0
-1525 -1529 0
-1525 -1530 0
-1526 -1527 0
-1526 -1528 0
-1526 -1529 0
-1526 -1530 0
-1527 -1528 0
-1527 -1529 0
-1527 -1530 0
-1528 -1529 0
-1528 -1530 0
-1529 -1530 0
-1447 778 0
-1447 926 0
-1447 -748 0
-1447 -749 0
-1447 -750 0
-1447 -751 0
-1447 -752 0
-1447 -766 948 0
-1447 -766 -831 0
-1447 -766 -855 0
-1447 -766 -879 0
-1447 -766 -741 -763 0
-1447 -767 949 0
-1447 -767 -832 0
-1447 -767 -856 0
-1447 -767 -880 0
-1447 -767 -741 -764 0
-1447 -768 950 0
-1447 -768 -833 0
-1447 -768 -857 0
-1447 -768 -881 0
-1447 -768 -741 -765 0
-1447 -769 0
-1448 778 0
-1448 927 0
-1448 -747 0
-1448 -749 0
-1448 -750 0
-1448 -751 0
-1448 -752 0
-1448 -766 948 0
-1448 -766 -835 0
-1448 -766 -859 0
-1448 -766 -883 0
-1448 -766 -742 -763 0
-1448 -767 949 0
-1448 -767 -836 0
-1448 -767 -860 0
-1448 -767 -884 0
-1448 -767 -742 -764 0
-1448 -768 950 0
-1448 -768 -837 0
-1448 -768 -861 0
-1448 -768 -885 0
-1448 -768 -742 -765 0
-1448 -769 0
-1449 778 0
-1449 928 0
-1449 -747 0
-1449 -748 0
-1449 -750 0
-1449 -751 0
-1449 -752 0
-1449 -766 948 0
-1449 -766 -839 0
-1449 -766 -863 0
-1449 -766 -887 0
-1449 -766 -743 -763 0
-1449 -767 949 0
-1449 -767 -840 0
-1449 -767 -864 0
-1449 -767 -888 0
-1449 -767 -743 -764 0
-1449 -768 950 0
-1449 -768 -841 0
-1449 -768 -865 0
-1449 -768 -889 0
-1449 -768 -743 -765 0
-1449 -769 0
-1450 778 0
-1450 929 0
-1450 -747 0
-1450 -748 0
-1450 -749 0
-1450 -751 0
-1450 -752 0
-1450 -766 948 0
-1450 -766 -843 0
-1450 -766 -867 0
-1450 -766 -891 0
-1450 -766 -744 -763 0
-1450 -767 949 0
-1450 -767 -844 0
-1450 -767 -868 0
-1450 -767 -892 0
-1450 -767 -744 -764 0
-1450 -768 950 0
-1450 -768 -845 0
-1450 -768 -869 0
-1450 -768 -893 0
-1450 -768 -744 -765 0
-1450 -769 0
-1451 778 0
-1451 930 0
-1451 -747 0
-1451 -748 0
-1451 -749 0
-1451 -750 0
-1451 -752 0
-1451 -766 948 0
-1451 -766 -847 0
-1451 -766 -871 0
-1451 -766 -895 0
-1451 -766 -745 -763 0
-1451 -767 949 0
-1451 -767 -848 0
-1451 -767 -872 0
-1451 -767 -896 0
-1451 -767 -745 -764 0
-1451 -768 950 0
-1451 -768 -849 0
-1451 -768 -873 0
-1451 -768 -897 0
-1451 -768 -745 -765 0
-1451 -769 0
-1452 778 0
-1452 931 0
-1452 -747 0
-1452 -748 0
-1452 -749 0
-1452 -750 0
-1452 -751 0
-1452 -766 948 0
-1452 -766 -851 0
-1452 -766 -875 0
-1452 -766 -899 0
-1452 -766 -746 -763 0
-1452 -767 949 0
-1452 -767 -852 0
-1452 -767 -876 0
-1452 -767 -900 0
-1452 -767 -746 -764 0
-1452 -768 950 0
-1452 -768 -853 0
-1452 -768 -877 0
-1452 -768 -901 0
-1452 -768 -746 -765 0
-1452 -769 0
-1453 778 0
-1453 926 0
-1453 -754 0
-1453 -755 0
-1453 -756 0
-1453 -757 0
-1453 -770 948 0
-1453 -770 -831 0
-1453 -770 -855 0
-1453 -770 -879 0
-1453 -770 -741 -763 0
-1453 -771 949 0
-1453 -771 -832 0
-1453 -771 -856 0
-1453 -771 -880 0
-1453 -771 -741 -764 0
-1453 -772 950 0
-1453 -772 -833 0
-1453 -772 -857 0
-1453 -772 -881 0
-1453 -772 -741 -765 0
-1453 -773 0
-1454 778 0
-1454 927 0
-1454 -755 0
-1454 -756 0
-1454 -757 0
-1454 -770 948 0
-1454 -770 -835 0
-1454 -770 -859 0
-1454 -770 -883 0
-1454 -770 -742 -763 0
-1454 -771 949 0
-1454 -771 -836 0
-1454 -771 -860 0
-1454 -771 -884 0
-1454 -771 -742 -764 0
-1454 -772 950 0
-1454 -772 -837 0
-1454 -772 -861 0
-1454 -772 -885 0
-1454 -772 -742 -765 0
-1454 -773 0
-1455 778 0
-1455 928 0
-1455 -753 0
-1455 -756 0
-1455 -757 0
-1455 -770 948 0
-1455 -770 -839 0
-1455 -770 -863 0
-1455 -770 -887 0
-1455 -770 -743 -763 0
-1455 -771 949 0
-1455 -771 -840 0
-1455 -771 -864 0
-1455 -771 -888 0
-1455 -771 -743 -764 0
-1455 -772 950 0
-1455 -772 -841 0
-1455 -772 -865 0
-1455 -772 -889 0
-1455 -772 -743 -765 0
-1455 -773 0
-1456 778 0
-1456 929 0
-1456 -753 0
-1456 -754 0
-1456 -757 0
-1456 -770 948 0
-1456 -770 -843 0
-1456 -770 -867 0
-1456 -770 -891 0
-1456 -770 -744 -763 0
-1456 -771 949 0
-1456 -771 -844 0
-1456 -771 -868 0
-1456 -771 -892 0
-1456 -771 -744 -764 0
-1456 -772 950 0
-1456 -772 -845 0
-1456 -772 -869 0
-1456 -772 -893 0
-1456 -772 -744 -765 0
-1456 -773 0
-1457 778 0
-1457 930 0
-1457 -753 0
-1457 -754 0
-1457 -755 0
-1457 -770 948 0
-1457 -770 -847 0
-1457 -770 -871 0
-1457 -770 -895 0
-1457 -770 -745 -763 0
-1457 -771 949 0
-1457 -771 -848 0
-1457 -771 -872 0
-1457 -771 -896 0
-1457 -771 -745 -764 0
-1457 -772 950 0
-1457 -772 -849 0
-1457 -772 -873 0
-1457 -772 -897 0
-1457 -772 -745 -765 0
-1457 -773 0
-1458 778 0
-1458 931 0
-1458 -753 0
-1458 -754 0
-1458 -755 0
-1458 -756 0
-1458 -770 948 0
-1458 -770 -851 0
-1458 -770 -875 0
-1458 -770 -899 0
-1458 -770 -746 -763 0
-1458 -771 949 0
-1458 -771 -852 0
-1458 -771 -876 0
-1458 -771 -900 0
-1458 -771 -746 -764 0
-1458 -772 950 0
-1458 -772 -853 0
-1458 -772 -877 0
-1458 -772 -901 0
-1458 -772 -746 -765 0
-1458 -773 0
-1459 778 0
-1459 926 0
-1459 -759 0
-1459 -760 0
-1459 -761 0
-1459 -774 948 0
-1459 -774 -831 0
-1459 -774 -855 0
-1459 -774 -879 0
-1459 -774 -741 -763 0
-1459 -775 949 0
-1459 -775 -832 0
-1459 -775 -856 0
-1459 -775 -880 0
-1459 -775 -741 -764 0
-1459 -776 950 0
-1459 -776 -833 0
-1459 -776 -857 0
-1459 -776 -881 0
-1459 -776 -741 -765 0
-1459 -777 0
-1460 778 0
-1460 927 0
-1460 -760 0
-1460 -761 0
-1460 -774 948 0
-1460 -774 -835 0
-1460 -774 -859 0
-1460 -774 -883 0
-1460 -774 -742 -763 0
-1460 -775 949 0
-1460 -775 -836 0
-1460 -775 -860 0
-1460 -775 -884 0
-1460 -775 -742 -764 0
-1460 -776 950 0
-1460 -776 -837 0
-1460 -776 -861 0
-1460 -776 -885 0
-1460 -776 -742 -765 0
-1460 -777 0
-1461 778 0
-1461 928 0
-1461 -761 0
-1461 -774 948 0
-1461 -774 -839 0
-1461 -774 -863 0
-1461 -774 -887 0
-1461 -774 -743 -763 0
-1461 -775 949 0
-1461 -775 -840 0
-1461 -775 -864 0
-1461 -775 -888 0
-1461 -775 -743 -764 0
-1461 -776 950 0
-1461 -776 -841 0
-1461 -776 -865 0
-1461 -776 -889 0
-1461 -776 -743 -765 0
-1461 -777 0
-1462 778 0
-1462 929 0
-1462 -758 0
-1462 -774 948 0
-1462 -774 -843 0
-1462 -774 -867 0
-1462 -774 -891 0
-1462 -774 -744 -763 0
-1462 -775 949 0
-1462 -775 -844 0
-1462 -775 -868 0
-1462 -775 -892 0
-1462 -775 -744 -764 0
-1462 -776 950 0
-1462 -776 -845 0
-1462 -776 -869 0
-1462 -776 -893 0
-1462 -776 -744 -765 0
-1462 -777 0
-1463 778 0
-1463 930 0
-1463 -758 0
-1463 -759 0
-1463 -774 948 0
-1463 -774 -847 0
-1463 -774 -871 0
-1463 -774 -895 0
-1463 -774 -745 -763 0
-1463 -775 949 0
-1463 -775 -848 0
-1463 -775 -872 0
-1463 -775 -896 0
-1463 -775 -745 -764 0
-1463 -776 950 0
-1463 -776 -849 0
-1463 -776 -873 0
-1463 -776 -897 0
-1463 -776 -745 -765 0
-1463 -777 0
-1464 778 0
-1464 931 0
-1464 -758 0
-1464 -759 0
-1464 -760 0
-1464 -774 948 0
-1464 -774 -851 0
-1464 -774 -875 0
-1464 -774 -899 0
-1464 -774 -746 -763 0
-1464 -775 949 0
-1464 -775 -852 0
-1464 -775 -876 0
-1464 -775 -900 0
-1464 -775 -746 -764 0
-1464 -776 950 0
-1464 -776 -853 0
-1464 -776 -877 0
-1464 -776 -901 0
-1464 -776 -746 -765 0
-1464 -777 0
-1465 778 0
-1465 926 0
-1465 947 0
-1465 -830 0
-1465 -854 0
-1465 -878 0
-1465 -741 -762 0
-1466 778 0
-1466 927 0
-1466 947 0
-1466 -834 0
-1466 -858 0
-1466 -882 0
-1466 -742 -762 0
-1467 778 0
-1467 928 0
-1467 947 0
-1467 -838 0
-1467 -862 0
-1467 -886 0
-1467 -743 -762 0
-1468 778 0
-1468 929 0
-1468 947 0
-1468 -842 0
-1468 -866 0
-1468 -890 0
-1468 -744 -762 0
-1469 778 0
-1469 930 0
-1469 947 0
-1469 -846 0
-1469 -870 0
-1469 -894 0
-1469 -745 -762 0
-1470 778 0
-1470 931 0
-1470 947 0
-1470 -850 0
-1470 -874 0
-1470 -898 0
-1470 -746 -762 0
-1471 779 0
-1471 932 0
-1471 -742 0
-1471 -743 0
-1471 -744 0
-1471 -745 0
-1471 -746 0
-1471 -762 952 0
-1471 -762 -807 0
-1471 -762 -855 0
-1471 -762 -879 0
-1471 -762 -747 -767 0
-1471 -763 953 0
-1471 -763 -808 0
-1471 -763 -856 0
-1471 -763 -880 0
-1471 -763 -747 -768 0
-1471 -764 954 0
-1471 -764 -809 0
-1471 -764 -857 0
-1471 -764 -881 0
-1471 -764 -747 -769 0
-1471 -765 0
-1472 779 0
-1472 933 0
-1472 -741 0
-1472 -743 0
-1472 -744 0
-1472 -745 0
-1472 -746 0
-1472 -762 952 0
-1472 -762 -811 0
-1472 -762 -859 0
-1472 -762 -883 0
-1472 -762 -748 -767 0
-1472 -763 953 0
-1472 -763 -812 0
-1472 -763 -860 0
-1472 -763 -884 0
-1472 -763 -748 -768 0
-1472 -764 954 0
-1472 -764 -813 0
-1472 -764 -861 0
-1472 -764 -885 0
-1472 -764 -748 -769 0
-1472 -765 0
-1473 779 0
-1473 934 0
-1473 -741 0
-1473 -742 0
-1473 -744 0
-1473 -745 0
-1473 -746 0
-1473 -762 952 0
-1473 -762 -815 0
-1473 -762 -863 0
-1473 -762 -887 0
-1473 -762 -749 -767 0
-1473 -763 953 0
-1473 -763 -816 0
-1473 -763 -864 0
-1473 -763 -888 0
-1473 -763 -749 -768 0
-1473 -764 954 0
-1473 -764 -817 0
-1473 -764 -865 0
-1473 -764 -889 0
-1473 -764 -749 -769 0
-1473 -765 0
-1474 779 0
-1474 935 0
-1474 -741 0
-1474 -742 0
-1474 -743 0
-1474 -745 0
-1474 -746 0
-1474 -762 952 0
-1474 -762 -819 0
-1474 -762 -867 0
-1474 -762 -891 0
-1474 -762 -750 -767 0
-1474 -763 953 0
-1474 -763 -820 0
-1474 -763 -868 0
-1474 -763 -892 0
-1474 -763 -750 -768 0
-1474 -764 954 0
-1474 -764 -821 0
-1474 -764 -869 0
-1474 -764 -893 0
-1474 -764 -750 -769 0
-1474 -765 0
-1475 779 0
-1475 936 0
-1475 -741 0
-1475 -742 0
-1475 -743 0
-1475 -744 0
-1475 -746 0
-1475 -762 952 0
-1475 -762 -823 0
-1475 -762 -871 0
-1475 -762 -895 0
-1475 -762 -751 -767 0
-1475 -763 953 0
-1475 -763 -824 0
-1475 -763 -872 0
-1475 -763 -896 0
-1475 -763 -751 -768 0
-1475 -764 954 0
-1475 -764 -825 0
-1475 -764 -873 0
-1475 -764 -897 0
-1475 -764 -751 -769 0
-1475 -765 0
-1476 779 0
-1476 937 0
-1476 -741 0
-1476 -742 0
-1476 -743 0
-1476 -744 0
-1476 -745 0
-1476 -762 952 0
-1476 -762 -827 0
-1476 -762 -875 0
-1476 -762 -899 0
-1476 -762 -752 -767 0
-1476 -763 953 0
-1476 -763 -828 0
-1476 -763 -876 0
-1476 -763 -900 0
-1476 -763 -752 -768 0
-1476 -764 954 0
-1476 -764 -829 0
-1476 -764 -877 0
-1476 -764 -901 0
-1476 -764 -752 -769 0
-1476 -765 0
-1477 779 0
-1477 932 0
-1477 -754 0
-1477 -755 0
-1477 -756 0
-1477 -757 0
-1477 -770 952 0
-1477 -770 -807 0
-1477 -770 -855 0
-1477 -770 -879 0
-1477 -770 -747 -767 0
-1477 -771 953 0
-1477 -771 -808 0
-1477 -771 -856 0
-1477 -771 -880 0
-1477 -771 -747 -768 0
-1477 -772 954 0
-1477 -772 -809 0
-1477 -772 -857 0
-1477 -772 -881 0
-1477 -772 -747 -769 0
-1477 -773 0
-1478 779 0
-1478 933 0
-1478 -755 0
-1478 -756 0
-1478 -757 0
-1478 -770 952 0
-1478 -770 -811 0
-1478 -770 -859 0
-1478 -770 -883 0
-1478 -770 -748 -767 0
-1478 -771 953 0
-1478 -771 -812 0
-1478 -771 -860 0
-1478 -771 -884 0
-1478 -771 -748 -768 0
-1478 -772 954 0
-1478 -772 -813 0
-1478 -772 -861 0
-1478 -772 -885 0
-1478 -772 -748 -769 0
-1478 -773 0
-1479 779 0
-1479 934 0
-1479 -753 0
-1479 -756 0
-1479 -757 0
-1479 -770 952 0
-1479 -770 -815 0
-1479 -770 -863 0
-1479 -770 -887 0
-1479 -770 -749 -767 0
-1479 -771 953 0
-1479 -771 -816 0
-1479 -771 -864 0
-1479 -771 -888 0
-1479 -771 -749 -768 0
-1479 -772 954 0
-1479 -772 -817 0
-1479 -772 -865 0
-1479 -772 -889 0
-1479 -772 -749 -769 0
-1479 -773 0
-1480 779 0
-1480 935 0
-1480 -753 0
-1480 -754 0
-1480 -757 0
-1480 -770 952 0
-1480 -770 -819 0
-1480 -770 -867 0
-1480 -770 -891 0
-1480 -770 -750 -767 0
-1480 -771 953 0
-1480 -771 -820 0
-1480 -771 -868 0
-1480 -771 -892 0
-1480 -771 -750 -768 0
-1480 -772 954 0
-1480 -772 -821 0
-1480 -772 -869 0
-1480 -772 -893 0
-1480 -772 -750 -769 0
-1480 -773 0
-1481 779 0
-1481 936 0
-1481 -753 0
-1481 -754 0
-1481 -755 0
-1481 -770 952 0
-1481 -770 -823 0
-1481 -770 -871 0
-1481 -770 -895 0
-1481 -770 -751 -767 0
-1481 -771 953 0
-1481 -771 -824 0
-1481 -771 -872 0
-1481 -771 -896 0
-1481 -771 -751 -768 0
-1481 -772 954 0
-1481 -772 -825 0
-1481 -772 -873 0
-1481 -772 -897 0
-1481 -772 -751 -769 0
-1481 -773 0
-1482 779 0
-1482 937 0
-1482 -753 0
-1482 -754 0
-1482 -755 0
-1482 -756 0
-1482 -770 952 0
-1482 -770 -827 0
-1482 -770 -875 0
-1482 -770 -899 0
-1482 -770 -752 -767 0
-1482 -771 953 0
-1482 -771 -828 0
-1482 -771 -876 0
-1482 -771 -900 0
-1482 -771 -752 -768 0
-1482 -772 954 0
-1482 -772 -829 0
-1482 -772 -877 0
-1482 -772 -901 0
-1482 -772 -752 -769 0
-1482 -773 0
-1483 779 0
-1483 932 0
-1483 -759 0
-1483 -760 0
-1483 -761 0
-1483 -774 952 0
-1483 -774 -807 0
-1483 -774 -855 0
-1483 -774 -879 0
-1483 -774 -747 -767 0
-1483 -775 953 0
-1483 -775 -808 0
-1483 -775 -856 0
-1483 -775 -880 0
-1483 -775 -747 -768 0
-1483 -776 954 0
-1483 -776 -809 0
-1483 -776 -857 0
-1483 -776 -881 0
-1483 -776 -747 -769 0
-1483 -777 0
-1484 779 0
-1484 933 0
-1484 -760 0
-1484 -761 0
-1484 -774 952 0
-1484 -774 -811 0
-1484 -774 -859 0
-1484 -774 -883 0
-1484 -774 -748 -767 0
-1484 -775 953 0
-1484 -775 -812 0
-1484 -775 -860 0
-1484 -775 -884 0
-1484 -775 -748 -768 0
-1484 -776 954 0
-1484 -776 -813 0
-1484 -776 -861 0
-1484 -776 -885 0
-1484 -776 -748 -769 0
-1484 -777 0
-1485 779 0
-1485 934 0
-1485 -761 0
-1485 -774 952 0
-1485 -774 -815 0
-1485 -774 -863 0
-1485 -774 -887 0
-1485 -774 -749 -767 0
-1485 -775 953 0
-1485 -775 -816 0
-1485 -775 -864 0
-1485 -775 -888 0
-1485 -775 -749 -768 0
-1485 -776 954 0
-1485 -776 -817 0
-1485 -776 -865 0
-1485 -776 -889 0
-1485 -776 -749 -769 0
-1485 -777 0
-1486 779 0
-1486 935 0
-1486 -758 0
-1486 -774 952 0
-1486 -774 -819 0
-1486 -774 -867 0
-1486 -774 -891 0
-1486 -774 -750 -767 0
-1486 -775 953 0
-1486 -775 -820 0
-1486 -775 -868 0
-1486 -775 -892 0
-1486 -775 -750 -768 0
-1486 -776 954 0
-1486 -776 -821 0
-1486 -776 -869 0
-1486 -776 -893 0
-1486 -776 -750 -769 0
-1486 -777 0
-1487 779 0
-1487 936 0
-1487 -758 0
-1487 -759 0
-1487 -774 952 0
-1487 -774 -823 0
-1487 -774 -871 0
-1487 -774 -895 0
-1487 -774 -751 -767 0
-1487 -775 953 0
-1487 -775 -824 0
-1487 -775 -872 0
-1487 -775 -896 0
-1487 -775 -751 -768 0
-1487 -776 954 0
-1487 -776 -825 0
-1487 -776 -873 0
-1487 -776 -897 0
-1487 -776 -751 -769 0
-1487 -777 0
-1488 779 0
-1488 937 0
-1488 -758 0
-1488 -759 0
-1488 -760 0
-1488 -774 952 0
-1488 -774 -827 0
-1488 -774 -875 0
-1488 -774 -899 0
-1488 -774 -752 -767 0
-1488 -775 953 0
-1488 -775 -828 0
-1488 -775 -876 0
-1488 -775 -900 0
-1488 -775 -752 -768 0
-1488 -776 954 0
-1488 -776 -829 0
-1488 -776 -877 0
-1488 -776 -901 0
-1488 -776 -752 -769 0
-1488 -777 0
-1489 779 0
-1489 932 0
-1489 951 0
-1489 -806 0
-1489 -854 0
-1489 -878 0
-1489 -747 -766 0
-1490 779 0
-1490 933 0
-1490 951 0
-1490 -810 0
-1490 -858 0
-1490 -882 0
-1490 -748 -766 0
-1491 779 0
-1491 934 0
-1491 951 0
-1491 -814 0
-1491 -862 0
-1491 -886 0
-1491 -749 -766 0
-1492 779 0
-1492 935 0
-1492 951 0
-1492 -818 0
-1492 -866 0
-1492 -890 0
-1492 -750 -766 0
-1493 779 0
-1493 936 0
-1493 951 0
-1493 -822 0
-1493 -870 0
-1493 -894 0
-1493 -751 -766 0
-1494 779 0
-1494 937 0
-1494 951 0
-1494 -826 0
-1494 -874 0
-1494 -898 0
-1494 -752 -766 0
-1495 780 0
-1495 938 0
-1495 -743 0
-1495 -744 0
-1495 -745 0
-1495 -746 0
-1495 -762 956 0
-1495 -762 -807 0
-1495 -762 -811 0
-1495 -762 -831 0
-1495 -762 -835 0
-1495 -762 -879 0
-1495 -762 -883 0
-1495 -762 -753 -771 0
-1495 -763 957 0
-1495 -763 -808 0
-1495 -763 -812 0
-1495 -763 -832 0
-1495 -763 -836 0
-1495 -763 -880 0
-1495 -763 -884 0
-1495 -763 -753 -772 0
-1495 -764 958 0
-1495 -764 -809 0
-1495 -764 -813 0
-1495 -764 -833 0
-1495 -764 -837 0
-1495 -764 -881 0
-1495 -764 -885 0
-1495 -764 -753 -773 0
-1495 -765 0
-1496 780 0
-1496 939 0
-1496 -741 0
-1496 -744 0
-1496 -745 0
-1496 -746 0
-1496 -762 956 0
-1496 -762 -811 0
-1496 -762 -815 0
-1496 -762 -835 0
-1496 -762 -839 0
-1496 -762 -883 0
-1496 -762 -887 0
-1496 -762 -754 -771 0
-1496 -763 957 0
-1496 -763 -812 0
-1496 -763 -816 0
-1496 -763 -836 0
-1496 -763 -840 0
-1496 -763 -884 0
-1496 -763 -888 0
-1496 -763 -754 -772 0
-1496 -764 958 0
-1496 -764 -813 0
-1496 -764 -817 0
-1496 -764 -837 0
-1496 -764 -841 0
-1496 -764 -885 0
-1496 -764 -889 0
-1496 -764 -754 -773 0
-1496 -765 0
-1497 780 0
-1497 940 0
-1497 -741 0
-1497 -742 0
-1497 -745 0
-1497 -746 0
-1497 -762 956 0
-1497 -762 -815 0
-1497 -762 -819 0
-1497 -762 -839 0
-1497 -762 -843 0
-1497 -762 -887 0
-1497 -762 -891 0
-1497 -762 -755 -771 0
-1497 -763 957 0
-1497 -763 -816 0
-1497 -763 -820 0
-1497 -763 -840 0
-1497 -763 -844 0
-1497 -763 -888 0
-1497 -763 -892 0
-1497 -763 -755 -772 0
-1497 -764 958 0
-1497 -764 -817 0
-1497 -764 -821 0
-1497 -764 -841 0
-1497 -764 -845 0
-1497 -764 -889 0
-1497 -764 -893 0
-1497 -764 -755 -773 0
-1497 -765 0
-1498 780 0
-1498 941 0
-1498 -741 0
-1498 -742 0
-1498 -743 0
-1498 -746 0
-1498 -762 956 0
-1498 -762 -819 0
-1498 -762 -823 0
-1498 -762 -843 0
-1498 -762 -847 0
-1498 -762 -891 0
-1498 -762 -895 0
-1498 -762 -756 -771 0
-1498 -763 957 0
-1498 -763 -820 0
-1498 -763 -824 0
-1498 -763 -844 0
-1498 -763 -848 0
-1498 -763 -892 0
-1498 -763 -896 0
-1498 -763 -756 -772 0
-1498 -764 958 0
-1498 -764 -821 0
-1498 -764 -825 0
-1498 -764 -845 0
-1498 -764 -849 0
-1498 -764 -893 0
-1498 -764 -897 0
-1498 -764 -756 -773 0
-1498 -765 0
-1499 780 0
-1499 942 0
-1499 -741 0
-1499 -742 0
-1499 -743 0
-1499 -744 0
-1499 -762 956 0
-1499 -762 -823 0
-1499 -762 -827 0
-1499 -762 -847 0
-1499 -762 -851 0
-1499 -762 -895 0
-1499 -762 -899 0
-1499 -762 -757 -771 0
-1499 -763 957 0
-1499 -763 -824 0
-1499 -763 -828 0
-1499 -763 -848 0
-1499 -763 -852 0
-1499 -763 -896 0
-1499 -763 -900 0
-1499 -763 -757 -772 0
-1499 -764 958 0
-1499 -764 -825 0
-1499 -764 -829 0
-1499 -764 -849 0
-1499 -764 -853 0
-1499 -764 -897 0
-1499 -764 -901 0
-1499 -764 -757 -773 0
-1499 -765 0
-1500 780 0
-1500 938 0
-1500 -749 0
-1500 -750 0
-1500 -751 0
-1500 -752 0
-1500 -766 956 0
-1500 -766 -807 0
-1500 -766 -811 0
-1500 -766 -831 0
-1500 -766 -835 0
-1500 -766 -879 0
-1500 -766 -883 0
-1500 -766 -753 -771 0
-1500 -767 957 0
-1500 -767 -808 0
-1500 -767 -812 0
-1500 -767 -832 0
-1500 -767 -836 0
-1500 -767 -880 0
-1500 -767 -884 0
-1500 -767 -753 -772 0
-1500 -768 958 0
-1500 -768 -809 0
-1500 -768 -813 0
-1500 -768 -833 0
-1500 -768 -837 0
-1500 -768 -881 0
-1500 -768 -885 0
-1500 -768 -753 -773 0
-1500 -769 0
-1501 780 0
-1501 939 0
-1501 -747 0
-1501 -750 0
-1501 -751 0
-1501 -752 0
-1501 -766 956 0
-1501 -766 -811 0
-1501 -766 -815 0
-1501 -766 -835 0
-1501 -766 -839 0
-1501 -766 -883 0
-1501 -766 -887 0
-1501 -766 -754 -771 0
-1501 -767 957 0
-1501 -767 -812 0
-1501 -767 -816 0
-1501 -767 -836 0
-1501 -767 -840 0
-1501 -767 -884 0
-1501 -767 -888 0
-1501 -767 -754 -772 0
-1501 -768 958 0
-1501 -768 -813 0
-1501 -768 -817 0
-1501 -768 -837 0
-1501 -768 -841 0
-1501 -768 -885 0
-1501 -768 -889 0
-1501 -768 -754 -773 0
-1501 -769 0
-1502 780 0
-1502 940 0
-1502 -747 0
-1502 -748 0
-1502 -751 0
-1502 -752 0
-1502 -766 956 0
-1502 -766 -815 0
-1502 -766 -819 0
-1502 -766 -839 0
-1502 -766 -843 0
-1502 -766 -887 0
-1502 -766 -891 0
-1502 -766 -755 -771 0
-1502 -767 957 0
-1502 -767 -816 0
-1502 -767 -820 0
-1502 -767 -840 0
-1502 -767 -844 0
-1502 -767 -888 0
-1502 -767 -892 0
-1502 -767 -755 -772 0
-1502 -768 958 0
-1502 -768 -817 0
-1502 -768 -821 0
-1502 -768 -841 0
-1502 -768 -845 0
-1502 -768 -889 0
-1502 -768 -893 0
-1502 -768 -755 -773 0
-1502 -769 0
-1503 780 0
-1503 941 0
-1503 -747 0
-1503 -748 0
-1503 -749 0
-1503 -752 0
-1503 -766 956 0
-1503 -766 -819 0
-1503 -766 -823 0
-1503 -766 -843 0
-1503 -766 -847 0
-1503 -766 -891 0
-1503 -766 -895 0
-1503 -766 -756 -771 0
-1503 -767 957 0
-1503 -767 -820 0
-1503 -767 -824 0
-1503 -767 -844 0
-1503 -767 -848 0
-1503 -767 -892 0
-1503 -767 -896 0
-1503 -767 -756 -772 0
-1503 -768 958 0
-1503 -768 -821 0
-1503 -768 -825 0
-1503 -768 -845 0
-1503 -768 -849 0
-1503 -768 -893 0
-1503 -768 -897 0
-1503 -768 -756 -773 0
-1503 -769 0
-1504 780 0
-1504 942 0
-1504 -747 0
-1504 -748 0
-1504 -749 0
-1504 -750 0
-1504 -766 956 0
-1504 -766 -823 0
-1504 -766 -827 0
-1504 -766 -847 0
-1504 -766 -851 0
-1504 -766 -895 0
-1504 -766 -899 0
-1504 -766 -757 -771 0
-1504 -767 957 0
-1504 -767 -824 0
-1504 -767 -828 0
-1504 -767 -848 0
-1504 -767 -852 0
-1504 -767 -896 0
-1504 -767 -900 0
-1504 -767 -757 -772 0
-1504 -768 958 0
-1504 -768 -825 0
-1504 -768 -829 0
-1504 -768 -849 0
-1504 -768 -853 0
-1504 -768 -897 0
-1504 -768 -901 0
-1504 -768 -757 -773 0
-1504 -769 0
-1505 780 0
-1505 938 0
-1505 -760 0
-1505 -761 0
-1505 -774 956 0
-1505 -774 -807 0
-1505 -774 -811 0
-1505 -774 -831 0
-1505 -774 -835 0
-1505 -774 -879 0
-1505 -774 -883 0
-1505 -774 -753 -771 0
-1505 -775 957 0
-1505 -775 -808 0
-1505 -775 -812 0
-1505 -775 -832 0
-1505 -775 -836 0
-1505 -775 -880 0
-1505 -775 -884 0
-1505 -775 -753 -772 0
-1505 -776 958 0
-1505 -776 -809 0
-1505 -776 -813 0
-1505 -776 -833 0
-1505 -776 -837 0
-1505 -776 -881 0
-1505 -776 -885 0
-1505 -776 -753 -773 0
-1505 -777 0
-1506 780 0
-1506 939 0
-1506 -761 0
-1506 -774 956 0
-1506 -774 -811 0
-1506 -774 -815 0
-1506 -774 -835 0
-1506 -774 -839 0
-1506 -774 -883 0
-1506 -774 -887 0
-1506 -774 -754 -771 0
-1506 -775 957 0
-1506 -775 -812 0
-1506 -775 -816 0
-1506 -775 -836 0
-1506 -775 -840 0
-1506 -775 -884 0
-1506 -775 -888 0
-1506 -775 -754 -772 0
-1506 -776 958 0
-1506 -776 -813 0
-1506 -776 -817 0
-1506 -776 -837 0
-1506 -776 -841 0
-1506 -776 -885 0
-1506 -776 -889 0
-1506 -776 -754 -773 0
-1506 -777 0
-1507 780 0
-1507 940 0
-1507 -774 956 0
-1507 -774 -815 0
-1507 -774 -819 0
-1507 -774 -839 0
-1507 -774 -843 0
-1507 -774 -887 0
-1507 -774 -891 0
-1507 -774 -755 -771 0
-1507 -775 957 0
-1507 -775 -816 0
-1507 -775 -820 0
-1507 -775 -840 0
-1507 -775 -844 0
-1507 -775 -888 0
-1507 -775 -892 0
-1507 -775 -755 -772 0
-1507 -776 958 0
-1507 -776 -817 0
-1507 -776 -821 0
-1507 -776 -841 0
-1507 -776 -845 0
-1507 -776 -889 0
-1507 -776 -893 0
-1507 -776 -755 -773 0
-1507 -777 0
-1508 780 0
-1508 941 0
-1508 -758 0
-1508 -774 956 0
-1508 -774 -819 0
-1508 -774 -823 0
-1508 -774 -843 0
-1508 -774 -847 0
-1508 -774 -891 0
-1508 -774 -895 0
-1508 -774 -756 -771 0
-1508 -775 957 0
-1508 -775 -820 0
-1508 -775 -824 0
-1508 -775 -844 0
-1508 -775 -848 0
-1508 -775 -892 0
-1508 -775 -896 0
-1508 -775 -756 -772 0
-1508 -776 958 0
-1508 -776 -821 0
-1508 -776 -825 0
-1508 -776 -845 0
-1508 -776 -849 0
-1508 -776 -893 0
-1508 -776 -897 0
-1508 -776 -756 -773 0
-1508 -777 0
-1509 780 0
-1509 942 0
-1509 -758 0
-1509 -759 0
-1509 -774 956 0
-1509 -774 -823 0
-1509 -774 -827 0
-1509 -774 -847 0
-1509 -774 -851 0
-1509 -774 -895 0
-1509 -774 -899 0
-1509 -774 -757 -771 0
-1509 -775 957 0
-1509 -775 -824 0
-1509 -775 -828 0
-1509 -775 -848 0
-1509 -775 -852 0
-1509 -775 -896 0
-1509 -775 -900 0
-1509 -775 -757 -772 0
-1509 -776 958 0
-1509 -776 -825 0
-1509 -776 -829 0
-1509 -776 -849 0
-1509 -776 -853 0
-1509 -776 -897 0
-1509 -776 -901 0
-1509 -776 -757 -773 0
-1509 -777 0
-1510 780 0
-1510 938 0
-1510 955 0
-1510 -806 0
-1510 -810 0
-1510 -830 0
-1510 -834 0
-1510 -878 0
-1510 -882 0
-1510 -753 -770 0
-1511 780 0
-1511 939 0
-1511 955 0
-1511 -810 0
-1511 -814 0
-1511 -834 0
-1511 -838 0
-1511 -882 0
-1511 -886 0
-1511 -754 -770 0
-1512 780 0
-1512 940 0
-1512 955 0
-1512 -814 0
-1512 -818 0
-1512 -838 0
-1512 -842 0
-1512 -886 0
-1512 -890 0
-1512 -755 -770 0
-1513 780 0
-1513 941 0
-1513 955 0
-1513 -818 0
-1513 -822 0
-1513 -842 0
-1513 -846 0
-1513 -890 0
-1513 -894 0
-1513 -756 -770 0
-1514 780 0
-1514 942 0
-1514 955 0
-1514 -822 0
-1514 -826 0
-1514 -846 0
-1514 -850 0
-1514 -894 0
-1514 -898 0
-1514 -757 -770 0
-1515 781 0
-1515 943 0
-1515 -744 0
-1515 -745 0
-1515 -746 0
-1515 -762 960 0
-1515 -762 -807 0
-1515 -762 -811 0
-1515 -762 -815 0
-1515 -762 -831 0
-1515 -762 -835 0
-1515 -762 -839 0
-1515 -762 -855 0
-1515 -762 -859 0
-1515 -762 -863 0
-1515 -762 -758 -775 0
-1515 -763 961 0
-1515 -763 -808 0
-1515 -763 -812 0
-1515 -763 -816 0
-1515 -763 -832 0
-1515 -763 -836 0
-1515 -763 -840 0
-1515 -763 -856 0
-1515 -763 -860 0
-1515 -763 -864 0
-1515 -763 -758 -776 0
-1515 -764 962 0
-1515 -764 -809 0
-1515 -764 -813 0
-1515 -764 -817 0
-1515 -764 -833 0
-1515 -764 -837 0
-1515 -764 -841 0
-1515 -764 -857 0
-1515 -764 -861 0
-1515 -764 -865 0
-1515 -764 -758 -777 0
-1515 -765 0
-1516 781 0
-1516 944 0
-1516 -741 0
-1516 -745 0
-1516 -746 0
-1516 -762 960 0
-1516 -762 -811 0
-1516 -762 -815 0
-1516 -762 -819 0
-1516 -762 -835 0
-1516 -762 -839 0
-1516 -762 -843 0
-1516 -762 -859 0
-1516 -762 -863 0
-1516 -762 -867 0
-1516 -762 -759 -775 0
-1516 -763 961 0
-1516 -763 -812 0
-1516 -763 -816 0
-1516 -763 -820 0
-1516 -763 -836 0
-1516 -763 -840 0
-1516 -763 -844 0
-1516 -763 -860 0
-1516 -763 -864 0
-1516 -763 -868 0
-1516 -763 -759 -776 0
-1516 -764 962 0
-1516 -764 -813 0
-1516 -764 -817 0
-1516 -764 -821 0
-1516 -764 -837 0
-1516 -764 -841 0
-1516 -764 -845 0
-1516 -764 -861 0
-1516 -764 -865 0
-1516 -764 -869 0
-1516 -764 -759 -777 0
-1516 -765 0
-1517 781 0
-1517 945 0
-1517 -741 0
-1517 -742 0
-1517 -746 0
-1517 -762 960 0
-1517 -762 -815 0
-1517 -762 -819 0
-1517 -762 -823 0
-1517 -762 -839 0
-1517 -762 -843 0
-1517 -762 -847 0
-1517 -762 -863 0
-1517 -762 -867 0
-1517 -762 -871 0
-1517 -762 -760 -775 0
-1517 -763 961 0
-1517 -763 -816 0
-1517 -763 -820 0
-1517 -763 -824 0
-1517 -763 -840 0
-1517 -763 -844 0
-1517 -763 -848 0
-1517 -763 -864 0
-1517 -763 -868 0
-1517 -763 -872 0
-1517 -763 -760 -776 0
-1517 -764 962 0
-1517 -764 -817 0
-1517 -764 -821 0
-1517 -764 -825 0
-1517 -764 -841 0
-1517 -764 -845 0
-1517 -764 -849 0
-1517 -764 -865 0
-1517 -764 -869 0
-1517 -764 -873 0
-1517 -764 -760 -777 0
-1517 -765 0
-1518 781 0
-1518 946 0
-1518 -741 0
-1518 -742 0
-1518 -743 0
-1518 -762 960 0
-1518 -762 -819 0
-1518 -762 -823 0
-1518 -762 -827 0
-1518 -762 -843 0
-1518 -762 -847 0
-1518 -762 -851 0
-1518 -762 -867 0
-1518 -762 -871 0
-1518 -762 -875 0
-1518 -762 -761 -775 0
-1518 -763 961 0
-1518 -763 -820 0
-1518 -763 -824 0
-1518 -763 -828 0
-1518 -763 -844 0
-1518 -763 -848 0
-1518 -763 -852 0
-1518 -763 -868 0
-1518 -763 -872 0
-1518 -763 -876 0
-1518 -763 -761 -776 0
-1518 -764 962 0
-1518 -764 -821 0
-1518 -764 -825 0
-1518 -764 -829 0
-1518 -764 -845 0
-1518 -764 -849 0
-1518 -764 -853 0
-1518 -764 -869 0
-1518 -764 -873 0
-1518 -764 -877 0
-1518 -764 -761 -777 0
-1518 -765 0
-1519 781 0
-1519 943 0
-1519 -750 0
-1519 -751 0
-1519 -752 0
-1519 -766 960 0
-1519 -766 -807 0
-1519 -766 -811 0
-1519 -766 -815 0
-1519 -766 -831 0
-1519 -766 -835 0
-1519 -766 -839 0
-1519 -766 -855 0
-1519 -766 -859 0
-1519 -766 -863 0
-1519 -766 -758 -775 0
-1519 -767 961 0
-1519 -767 -808 0
-1519 -767 -812 0
-1519 -767 -816 0
-1519 -767 -832 0
-1519 -767 -836 0
-1519 -767 -840 0
-1519 -767 -856 0
-1519 -767 -860 0
-1519 -767 -864 0
-1519 -767 -758 -776 0
-1519 -768 962 0
-1519 -768 -809 0
-1519 -768 -813 0
-1519 -768 -817 0
-1519 -768 -833 0
-1519 -768 -837 0
-1519 -768 -841 0
-1519 -768 -857 0
-1519 -768 -861 0
-1519 -768 -865 0
-1519 -768 -758 -777 0
-1519 -769 0
-1520 781 0
-1520 944 0
-1520 -747 0
-1520 -751 0
-1520 -752 0
-1520 -766 960 0
-1520 -766 -811 0
-1520 -766 -815 0
-1520 -766 -819 0
-1520 -766 -835 0
-1520 -766 -839 0
-1520 -766 -843 0
-1520 -766 -859 0
-1520 -766 -863 0
-1520 -766 -867 0
-1520 -766 -759 -775 0
-1520 -767 961 0
-1520 -767 -812 0
-1520 -767 -816 0
-1520 -767 -820 0
-1520 -767 -836 0
-1520 -767 -840 0
-1520 -767 -844 0
-1520 -767 -860 0
-1520 -767 -864 0
-1520 -767 -868 0
-1520 -767 -759 -776 0
-1520 -768 962 0
-1520 -768 -813 0
-1520 -768 -817 0
-1520 -768 -821 0
-1520 -768 -837 0
-1520 -768 -841 0
-1520 -768 -845 0
-1520 -768 -861 0
-1520 -768 -865 0
-1520 -768 -869 0
-1520 -768 -759 -777 0
-1520 -769 0
-1521 781 0
-1521 945 0
-1521 -747 0
-1521 -748 0
-1521 -752 0
-1521 -766 960 0
-1521 -766 -815 0
-1521 -766 -819 0
-1521 -766 -823 0
-1521 -766 -839 0
-1521 -766 -843 0
-1521 -766 -847 0
-1521 -766 -863 0
-1521 -766 -867 0
-1521 -766 -871 0
-1521 -766 -760 -775 0
-1521 -767 961 0
-1521 -767 -816 0
-1521 -767 -820 0
-1521 -767 -824 0
-1521 -767 -840 0
-1521 -767 -844 0
-1521 -767 -848 0
-1521 -767 -864 0
-1521 -767 -868 0
-1521 -767 -872 0
-1521 -767 -760 -776 0
-1521 -768 962 0
-1521 -768 -817 0
-1521 -768 -821 0
-1521 -768 -825 0
-1521 -768 -841 0
-1521 -768 -845 0
-1521 -768 -849 0
-1521 -768 -865 0
-1521 -768 -869 0
-1521 -768 -873 0
-1521 -768 -760 -777 0
-1521 -769 0
-1522 781 0
-1522 946 0
-1522 -747 0
-1522 -748 0
-1522 -749 0
-1522 -766 960 0
-1522 -766 -819 0
-1522 -766 -823 0
-1522 -766 -827 0
-1522 -766 -843 0
-1522 -766 -847 0
-1522 -766 -851 0
-1522 -766 -867 0
-1522 -766 -871 0
-1522 -766 -875 0
-1522 -766 -761 -775 0
-1522 -767 961 0
-1522 -767 -820 0
-1522 -767 -824 0
-1522 -767 -828 0
-1522 -767 -844 0
-1522 -767 -848 0
-1522 -767 -852 0
-1522 -767 -868 0
-1522 -767 -872 0
-1522 -767 -876 0
-1522 -767 -761 -776 0
-1522 -768 962 0
-1522 -768 -821 0
-1522 -768 -825 0
-1522 -768 -829 0
-1522 -768 -845 0
-1522 -768 -849 0
-1522 -768 -853 0
-1522 -768 -869 0
-1522 -768 -873 0
-1522 -768 -877 0
-1522 -768 -761 -777 0
-1522 -769 0
-1523 781 0
-1523 943 0
-1523 -756 0
-1523 -757 0
-1523 -770 960 0
-1523 -770 -807 0
-1523 -770 -811 0
-1523 -770 -815 0
-1523 -770 -831 0
-1523 -770 -835 0
-1523 -770 -839 0
-1523 -770 -855 0
-1523 -770 -859 0
-1523 -770 -863 0
-1523 -770 -758 -775 0
-1523 -771 961 0
-1523 -771 -808 0
-1523 -771 -812 0
-1523 -771 -816 0
-1523 -771 -832 0
-1523 -771 -836 0
-1523 -771 -840 0
-1523 -771 -856 0
-1523 -771 -860 0
-1523 -771 -864 0
-1523 -771 -758 -776 0
-1523 -772 962 0
-1523 -772 -809 0
-1523 -772 -813 0
-1523 -772 -817 0
-1523 -772 -833 0
-1523 -772 -837 0
-1523 -772 -841 0
-1523 -772 -857 0
-1523 -772 -861 0
-1523 -772 -865 0
-1523 -772 -758 -777 0
-1523 -773 0
-1524 781 0
-1524 944 0
-1524 -757 0
-1524 -770 960 0
-1524 -770 -811 0
-1524 -770 -815 0
-1524 -770 -819 0
-1524 -770 -835 0
-1524 -770 -839 0
-1524 -770 -843 0
-1524 -770 -859 0
-1524 -770 -863 0
-1524 -770 -867 0
-1524 -770 -759 -775 0
-1524 -771 961 0
-1524 -771 -812 0
-1524 -771 -816 0
-1524 -771 -820 0
-1524 -771 -836 0
-1524 -771 -840 0
-1524 -771 -844 0
-1524 -771 -860 0
-1524 -771 -864 0
-1524 -771 -868 0
-1524 -771 -759 -776 0
-1524 -772 962 0
-1524 -772 -813 0
-1524 -772 -817 0
-1524 -772 -821 0
-1524 -772 -837 0
-1524 -772 -841 0
-1524 -772 -845 0
-1524 -772 -861 0
-1524 -772 -865 0
-1524 -772 -869 0
-1524 -772 -759 -777 0
-1524 -773 0
-1525 781 0
-1525 945 0
-1525 -753 0
-1525 -770 960 0
-1525 -770 -815 0
-1525 -770 -819 0
-1525 -770 -823 0
-1525 -770 -839 0
-1525 -770 -843 0
-1525 -770 -847 0
-1525 -770 -863 0
-1525 -770 -867 0
-1525 -770 -871 0
-1525 -770 -760 -775 0
-1525 -771 961 0
-1525 -771 -816 0
-1525 -771 -820 0
-1525 -771 -824 0
-1525 -771 -840 0
-1525 -771 -844 0
-1525 -771 -848 0
-1525 -771 -864 0
-1525 -771 -868 0
-1525 -771 -872 0
-1525 -771 -760 -776 0
-1525 -772 962 0
-1525 -772 -817 0
-1525 -772 -821 0
-1525 -772 -825 0
-1525 -772 -841 0
-1525 -772 -845 0
-1525 -772 -849 0
-1525 -772 -865 0
-1525 -772 -869 0
-1525 -772 -873 0
-1525 -772 -760 -777 0
-1525 -773 0
-1526 781 0
-1526 946 0
-1526 -753 0
-1526 -754 0
-1526 -770 960 0
-1526 -770 -819 0
-1526 -770 -823 0
-1526 -770 -827 0
-1526 -770 -843 0
-1526 -770 -847 0
-1526 -770 -851 0
-1526 -770 -867 0
-1526 -770 -871 0
-1526 -770 -875 0
-1526 -770 -761 -775 0
-1526 -771 961 0
-1526 -771 -820 0
-1526 -771 -824 0
-1526 -771 -828 0
-1526 -771 -844 0
-1526 -771 -848 0
-1526 -771 -852 0
-1526 -771 -868 0
-1526 -771 -872 0
-1526 -771 -876 0
-1526 -771 -761 -776 0
-1526 -772 962 0
-1526 -772 -821 0
-1526 -772 -825 0
-1526 -772 -829 0
-1526 -772 -845 0
-1526 -772 -849 0
-1526 -772 -853 0
-1526 -772 -869 0
-1526 -772 -873 0
-1526 -772 -877 0
-1526 -772 -761 -777 0
-1526 -773 0
-1527 781 0
-1527 943 0
-1527 959 0
-1527 -806 0
-1527 -810 0
-1527 -814 0
-1527 -830 0
-1527 -834 0
-1527 -838 0
-1527 -854 0
-1527 -858 0
-1527 -862 0
-1527 -758 -774 0
-1528 781 0
-1528 944 0
-1528 959 0
-1528 -810 0
-1528 -814 0
-1528 -818 0
-1528 -834 0
-1528 -838 0
-1528 -842 0
-1528 -858 0
-1528 -862 0
-1528 -866 0
-1528 -759 -774 0
-1529 781 0
-1529 945 0
-1529 959 0
-1529 -814 0
-1529 -818 0
-1529 -822 0
-1529 -838 0
-1529 -842 0
-1529 -846 0
-1529 -862 0
-1529 -866 0
-1529 -870 0
-1529 -760 -774 0
-1530 781 0
-1530 946 0
-1530 959 0
-1530 -818 0
-1530 -822 0
-1530 -826 0
-1530 -842 0
-1530 -846 0
-1530 -850 0
-1530 -866 0
-1530 -870 0
-1530 -874 0
-1530 -761 -774 0
-741 926 1447 1448 1449 1450 1451 1452 1453 1454 1455 1456 1457 1458 1459 1460 1461 1462 1463 1464 1465 1466 1467 1468 1469 1470 0
-742 927 1447 1448 1449 1450 1451 1452 1453 1454 1455 1456 1457 1458 1459 1460 1461 1462 1463 1464 1465 1466 1467 1468 1469 1470 0
-743 928 1447 1448 1449 1450 1451 1452 1453 1454 1455 1456 1457 1458 1459 1460 1461 1462 1463 1464 1465 1466 1467 1468 1469 1470 0
-744 929 1447 1448 1449 1450 1451 1452 1453 1454 1455 1456 1457 1458 1459 1460 1461 1462 1463 1464 1465 1466 1467 1468 1469 1470 0
-745 930 1447 1448 1449 1450 1451 1452 1453 1454 1455 1456 1457 1458 1459 1460 1461 1462 1463 1464 1465 1466 1467 1468 1469 1470 0
-746 931 1447 1448 1449 1450 1451 1452 1453 1454 1455 1456 1457 1458 1459 1460 1461 1462 1463 1464 1465 1466 1467 1468 1469 1470 0
-762 947 1447 1448 1449 1450 1451 1452 1453 1454 1455 1456 1457 1458 1459 1460 1461 1462 1463 1464 1465 1466 1467 1468 1469 1470 0
-763 948 1447 1448 1449 1450 1451 1452 1453 1454 1455 1456 1457 1458 1459 1460 1461 1462 1463 1464 1465 1466 1467 1468 1469 1470 0
-764 949 1447 1448 1449 1450 1451 1452 1453 1454 1455 1456 1457 1458 1459 1460 1461 1462 1463 1464 1465 1466 1467 1468 1469 1470 0
-765 950 1447 1448 1449 1450 1451 1452 1453 1454 1455 1456 1457 1458 1459 1460 1461 1462 1463 1464 1465 1466 1467 1468 1469 1470 0
-747 932 1471 1472 1473 1474 1475 1476 1477 1478 1479 1480 1481 1482 1483 1484 1485 1486 1487 1488 1489 1490 1491 1492 1493 1494 0
-748 933 1471 1472 1473 1474 1475 1476 1477 1478 1479 1480 1481 1482 1483 1484 1485 1486 1487 1488 1489 1490 1491 1492 1493 1494 0
-749 934 1471 1472 1473 1474 1475 1476 1477 1478 1479 1480 1481 1482 1483 1484 1485 1486 1487 1488 1489 1490 1491 1492 1493 1494 0
-750 935 1471 1472 1473 1474 1475 1476 1477 1478 1479 1480 1481 1482 1483 1484 1485 1486 1487 1488 1489 1490 1491 1492 1493 1494 0
-751 936 1471 1472 1473 1474 1475 1476 1477 1478 1479 1480 1481 1482 1483 1484 1485 1486 1487 1488 1489 1490 1491 1492 1493 1494 0
-752 937 1471 1472 1473 1474 1475 1476 1477 1478 1479 1480 1481 1482 1483 1484 1485 1486 1487 1488 1489 1490 1491 1492 1493 1494 0
-766 951 1471 1472 1473 1474 1475 1476 1477 1478 1479 1480 1481 1482 1483 1484 1485 1486 1487 1488 1489 1490 1491 1492 1493 1494 0
-767 952 1471 1472 1473 1474 1475 1476 1477 1478 1479 1480 1481 1482 1483 1484 1485 1486 1487 1488 1489 1490 1491 1492 1493 1494 0
-768 953 1471 1472 1473 1474 1475 1476 1477 1478 1479 1480 1481 1482 1483 1484 1485 1486 1487 1488 1489 1490 1491 1492 1493 1494 0
-769 954 1471 1472 1473 1474 1475 1476 1477 1478 1479 1480 1481 1482 1483 1484 1485 1486 1487 1488 1489 1490 1491 1492 1493 1494 0
-753 938 1495 1496 1497 1498 1499 1500 1501 1502 1503 1504 1505 1506 1507 1508 1509 1510 1511 1512 1513 1514 0
-754 939 1495 1496 1497 1498 1499 1500 1501 1502 1503 1504 1505 1506 1507 1508 1509 1510 1511 1512 1513 1514 0
-755 940 1495 1496 1497 1498 1499 1500 1501 1502 1503 1504 1505 1506 1507 1508 1509 1510 1511 1512 1513 1514 0
-756 941 1495 1496 1497 1498 1499 1500 1501 1502 1503 1504 1505 1506 1507 1508 1509 1510 1511 1512 1513 1514 0
-757 942 1495 1496 1497 1498 1499 1500 1501 1502 1503 1504 1505 1506 1507 1508 1509 1510 1511 1512 1513 1514 0
-770 955 1495 1496 1497 1498 1499 1500 1501 1502 1503 1504 1505 1506 1507 1508 1509 1510 1511 1512 1513 1514 0
-771 956 1495 1496 1497 1498 1499 1500 1501 1502 1503 1504 1505 1506 1507 1508 1509 1510 1511 1512 1513 1514 0
-772 957 1495 1496 1497 1498 1499 1500 1501 1502 1503 1504 1505 1506 1507 1508 1509 1510 1511 1512 1513 1514 0
-773 958 1495 1496 1497 1498 1499 1500 1501 1502 1503 1504 1505 1506 1507 1508 1509 1510 1511 1512 1513 1514 0
-758 943 1515 1516 1517 1518 1519 1520 1521 1522 1523 1524 1525 1526 1527 1528 1529 1530 0
-759 944 1515 1516 1517 1518 1519 1520 1521 1522 1523 1524 1525 1526 1527 1528 1529 1530 0
-760 945 1515 1516 1517 1518 1519 1520 1521 1522 1523 1524 1525 1526 1527 1528 1529 1530 0
-761 946 1515 1516 1517 1518 1519 1520 1521 1522 1523 1524 1525 1526 1527 1528 1529 1530 0
-774 959 1515 1516 1517 1518 1519 1520 1521 1522 1523 1524 1525 1526 1527 1528 1529 1530 0
-775 960 1515 1516 1517 1518 1519 1520 1521 1522 1523 1524 1525 1526 1527 1528 1529 1530 0
-776 961 1515 1516 1517 1518 1519 1520 1521 1522 1523 1524 1525 1526 1527 1528 1529 1530 0
-777 962 1515 1516 1517 1518 1519 1520 1521 1522 1523 1524 1525 1526 1527 1528 1529 1530 0
