p cnf 1799 39107
13 0
30 0
4 0
22 0
12 0
26 0
21 0
35 0
1123 0
1140 0
1131 0
1144 0
1111 0
1133 0
1118 0
1137 0
1 2 3 4 5 6 0
-1 -2 0
-1 -3 0
-1 -4 0
-1 -5 0
-1 -6 0
-2 -3 0
-2 -4 0
-2 -5 0
-2 -6 0
-3 -4 0
-3 -5 0
-3 -6 0
-4 -5 0
-4 -6 0
-5 -6 0
22 23 24 25 0
-22 -23 0
-22 -24 0
-22 -25 0
-23 -24 0
-23 -25 0
-24 -25 0
7 8 9 10 11 12 0
-7 -8 0
-7 -9 0
-7 -10 0
-7 -11 0
-7 -12 0
-8 -9 0
-8 -10 0
-8 -11 0
-8 -12 0
-9 -10 0
-9 -11 0
-9 -12 0
-10 -11 0
-10 -12 0
-11 -12 0
26 27 28 29 0
-26 -27 0
-26 -28 0
-26 -29 0
-27 -28 0
-27 -29 0
-28 -29 0
13 14 15 16 17 0
-13 -14 0
-13 -15 0
-13 -16 0
-13 -17 0
-14 -15 0
-14 -16 0
-14 -17 0
-15 -16 0
-15 -17 0
-16 -17 0
30 31 32 33 0
-30 -31 0
-30 -32 0
-30 -33 0
-31 -32 0
-31 -33 0
-32 -33 0
18 19 20 21 0
-18 -19 0
-18 -20 0
-18 -21 0
-19 -20 0
-19 -21 0
-20 -21 0
34 35 36 37 0
-34 -35 0
-34 -36 0
-34 -37 0
-35 -36 0
-35 -37 0
-36 -37 0
-42 1 0
-1 42 0
-66 42 0
-66 22 0
-42 -22 66 0
-67 42 0
-67 23 0
-42 -23 67 0
-68 42 0
-68 24 0
-42 -24 68 0
-69 42 0
-69 25 0
-42 -25 69 0
-43 2 0
-2 43 0
-70 43 0
-70 22 0
-43 -22 70 0
-71 43 0
-71 23 0
-43 -23 71 0
-72 43 0
-72 24 0
-43 -24 72 0
-73 43 0
-73 25 0
-43 -25 73 0
-44 3 0
-3 44 0
-74 44 0
-74 22 0
-44 -22 74 0
-75 44 0
-75 23 0
-44 -23 75 0
-76 44 0
-76 24 0
-44 -24 76 0
-77 44 0
-77 25 0
-44 -25 77 0
-45 4 0
-4 45 0
-78 45 0
-78 22 0
-45 -22 78 0
-79 45 0
-79 23 0
-45 -23 79 0
-80 45 0
-80 24 0
-45 -24 80 0
-81 45 0
-81 25 0
-45 -25 81 0
-46 5 0
-5 46 0
-82 46 0
-82 22 0
-46 -22 82 0
-83 46 0
-83 23 0
-46 -23 83 0
-84 46 0
-84 24 0
-46 -24 84 0
-85 46 0
-85 25 0
-46 -25 85 0
-47 6 0
-6 47 0
-86 47 0
-86 22 0
-47 -22 86 0
-87 47 0
-87 23 0
-47 -23 87 0
-88 47 0
-88 24 0
-47 -24 88 0
-89 47 0
-89 25 0
-47 -25 89 0
-48 7 0
-7 48 0
-90 48 0
-90 26 0
-48 -26 90 0
-91 48 0
-91 27 0
-48 -27 91 0
-92 48 0
-92 28 0
-48 -28 92 0
-93 48 0
-93 29 0
-48 -29 93 0
-49 8 0
-8 49 0
-94 49 0
-94 26 0
-49 -26 94 0
-95 49 0
-95 27 0
-49 -27 95 0
-96 49 0
-96 28 0
-49 -28 96 0
-97 49 0
-97 29 0
-49 -29 97 0
-50 9 0
-9 50 0
-98 50 0
-98 26 0
-50 -26 98 0
-99 50 0
-99 27 0
-50 -27 99 0
-100 50 0
-100 28 0
-50 -28 100 0
-101 50 0
-101 29 0
-50 -29 101 0
-51 10 0
-10 51 0
-102 51 0
-102 26 0
-51 -26 102 0
-103 51 0
-103 27 0
-51 -27 103 0
-104 51 0
-104 28 0
-51 -28 104 0
-105 51 0
-105 29 0
-51 -29 105 0
-52 11 0
-11 52 0
-106 52 0
-106 26 0
-52 -26 106 0
-107 52 0
-107 27 0
-52 -27 107 0
-108 52 0
-108 28 0
-52 -28 108 0
-109 52 0
-109 29 0
-52 -29 109 0
-53 12 0
-12 53 0
-110 53 0
-110 26 0
-53 -26 110 0
-111 53 0
-111 27 0
-53 -27 111 0
-112 53 0
-112 28 0
-53 -28 112 0
-113 53 0
-113 29 0
-53 -29 113 0
-54 13 0
-13 54 0
-114 54 0
-114 30 0
-54 -30 114 0
-115 54 0
-115 31 0
-54 -31 115 0
-116 54 0
-116 32 0
-54 -32 116 0
-117 54 0
-117 33 0
-54 -33 117 0
-55 13 14 0
-13 55 0
-14 55 0
-118 55 0
-118 30 0
-55 -30 118 0
-119 55 0
-119 31 0
-55 -31 119 0
-120 55 0
-120 32 0
-55 -32 120 0
-121 55 0
-121 33 0
-55 -33 121 0
-56 14 15 0
-14 56 0
-15 56 0
-122 56 0
-122 30 0
-56 -30 122 0
-123 56 0
-123 31 0
-56 -31 123 0
-124 56 0
-124 32 0
-56 -32 124 0
-125 56 0
-125 33 0
-56 -33 125 0
-57 15 16 0
-15 57 0
-16 57 0
-126 57 0
-126 30 0
-57 -30 126 0
-127 57 0
-127 31 0
-57 -31 127 0
-128 57 0
-128 32 0
-57 -32 128 0
-129 57 0
-129 33 0
-57 -33 129 0
-58 16 17 0
-16 58 0
-17 58 0
-130 58 0
-130 30 0
-58 -30 130 0
-131 58 0
-131 31 0
-58 -31 131 0
-132 58 0
-132 32 0
-58 -32 132 0
-133 58 0
-133 33 0
-58 -33 133 0
-59 17 0
-17 59 0
-134 59 0
-134 30 0
-59 -30 134 0
-135 59 0
-135 31 0
-59 -31 135 0
-136 59 0
-136 32 0
-59 -32 136 0
-137 59 0
-137 33 0
-59 -33 137 0
-60 18 0
-18 60 0
-138 60 0
-138 34 0
-60 -34 138 0
-139 60 0
-139 35 0
-60 -35 139 0
-140 60 0
-140 36 0
-60 -36 140 0
-141 60 0
-141 37 0
-60 -37 141 0
-61 18 19 0
-18 61 0
-19 61 0
-142 61 0
-142 34 0
-61 -34 142 0
-143 61 0
-143 35 0
-61 -35 143 0
-144 61 0
-144 36 0
-61 -36 144 0
-145 61 0
-145 37 0
-61 -37 145 0
-62 18 19 20 0
-18 62 0
-19 62 0
-20 62 0
-146 62 0
-146 34 0
-62 -34 146 0
-147 62 0
-147 35 0
-62 -35 147 0
-148 62 0
-148 36 0
-62 -36 148 0
-149 62 0
-149 37 0
-62 -37 149 0
-63 19 20 21 0
-19 63 0
-20 63 0
-21 63 0
-150 63 0
-150 34 0
-63 -34 150 0
-151 63 0
-151 35 0
-63 -35 151 0
-152 63 0
-152 36 0
-63 -36 152 0
-153 63 0
-153 37 0
-63 -37 153 0
-64 20 21 0
-20 64 0
-21 64 0
-154 64 0
-154 34 0
-64 -34 154 0
-155 64 0
-155 35 0
-64 -35 155 0
-156 64 0
-156 36 0
-64 -36 156 0
-157 64 0
-157 37 0
-64 -37 157 0
-65 21 0
-21 65 0
-158 65 0
-158 34 0
-65 -34 158 0
-159 65 0
-159 35 0
-65 -35 159 0
-160 65 0
-160 36 0
-65 -36 160 0
-161 65 0
-161 37 0
-65 -37 161 0
-162 66 90 114 138 0
-66 162 0
-90 162 0
-114 162 0
-138 162 0
-163 67 91 115 139 0
-67 163 0
-91 163 0
-115 163 0
-139 163 0
-164 68 92 116 140 0
-68 164 0
-92 164 0
-116 164 0
-140 164 0
-165 69 93 117 141 0
-69 165 0
-93 165 0
-117 165 0
-141 165 0
-166 70 94 118 142 0
-70 166 0
-94 166 0
-118 166 0
-142 166 0
-167 71 95 119 143 0
-71 167 0
-95 167 0
-119 167 0
-143 167 0
-168 72 96 120 144 0
-72 168 0
-96 168 0
-120 168 0
-144 168 0
-169 73 97 121 145 0
-73 169 0
-97 169 0
-121 169 0
-145 169 0
-170 74 98 122 146 0
-74 170 0
-98 170 0
-122 170 0
-146 170 0
-171 75 99 123 147 0
-75 171 0
-99 171 0
-123 171 0
-147 171 0
-172 76 100 124 148 0
-76 172 0
-100 172 0
-124 172 0
-148 172 0
-173 77 101 125 149 0
-77 173 0
-101 173 0
-125 173 0
-149 173 0
-174 78 102 126 150 0
-78 174 0
-102 174 0
-126 174 0
-150 174 0
-175 79 103 127 151 0
-79 175 0
-103 175 0
-127 175 0
-151 175 0
-176 80 104 128 152 0
-80 176 0
-104 176 0
-128 176 0
-152 176 0
-177 81 105 129 153 0
-81 177 0
-105 177 0
-129 177 0
-153 177 0
-178 82 106 130 154 0
-82 178 0
-106 178 0
-130 178 0
-154 178 0
-179 83 107 131 155 0
-83 179 0
-107 179 0
-131 179 0
-155 179 0
-180 84 108 132 156 0
-84 180 0
-108 180 0
-132 180 0
-156 180 0
-181 85 109 133 157 0
-85 181 0
-109 181 0
-133 181 0
-157 181 0
-182 86 110 134 158 0
-86 182 0
-110 182 0
-134 182 0
-158 182 0
-183 87 111 135 159 0
-87 183 0
-111 183 0
-135 183 0
-159 183 0
-184 88 112 136 160 0
-88 184 0
-112 184 0
-136 184 0
-160 184 0
-185 89 113 137 161 0
-89 185 0
-113 185 0
-137 185 0
-161 185 0
-66 -90 0
-66 -114 0
-66 -138 0
-90 -114 0
-90 -138 0
-114 -138 0
-67 -91 0
-67 -115 0
-67 -139 0
-91 -115 0
-91 -139 0
-115 -139 0
-68 -92 0
-68 -116 0
-68 -140 0
-92 -116 0
-92 -140 0
-116 -140 0
-69 -93 0
-69 -117 0
-69 -141 0
-93 -117 0
-93 -141 0
-117 -141 0
-70 -94 0
-70 -118 0
-70 -142 0
-94 -118 0
-94 -142 0
-118 -142 0
-71 -95 0
-71 -119 0
-71 -143 0
-95 -119 0
-95 -143 0
-119 -143 0
-72 -96 0
-72 -120 0
-72 -144 0
-96 -120 0
-96 -144 0
-120 -144 0
-73 -97 0
-73 -121 0
-73 -145 0
-97 -121 0
-97 -145 0
-121 -145 0
-74 -98 0
-74 -122 0
-74 -146 0
-98 -122 0
-98 -146 0
-122 -146 0
-75 -99 0
-75 -123 0
-75 -147 0
-99 -123 0
-99 -147 0
-123 -147 0
-76 -100 0
-76 -124 0
-76 -148 0
-100 -124 0
-100 -148 0
-124 -148 0
-77 -101 0
-77 -125 0
-77 -149 0
-101 -125 0
-101 -149 0
-125 -149 0
-78 -102 0
-78 -126 0
-78 -150 0
-102 -126 0
-102 -150 0
-126 -150 0
-79 -103 0
-79 -127 0
-79 -151 0
-103 -127 0
-103 -151 0
-127 -151 0
-80 -104 0
-80 -128 0
-80 -152 0
-104 -128 0
-104 -152 0
-128 -152 0
-81 -105 0
-81 -129 0
-81 -153 0
-105 -129 0
-105 -153 0
-129 -153 0
-82 -106 0
-82 -130 0
-82 -154 0
-106 -130 0
-106 -154 0
-130 -154 0
-83 -107 0
-83 -131 0
-83 -155 0
-107 -131 0
-107 -155 0
-131 -155 0
-84 -108 0
-84 -132 0
-84 -156 0
-108 -132 0
-108 -156 0
-132 -156 0
-85 -109 0
-85 -133 0
-85 -157 0
-109 -133 0
-109 -157 0
-133 -157 0
-86 -110 0
-86 -134 0
-86 -158 0
-110 -134 0
-110 -158 0
-134 -158 0
-87 -111 0
-87 -135 0
-87 -159 0
-111 -135 0
-111 -159 0
-135 -159 0
-88 -112 0
-88 -136 0
-88 -160 0
-112 -136 0
-112 -160 0
-136 -160 0
-89 -113 0
-89 -137 0
-89 -161 0
-113 -137 0
-113 -161 0
-137 -161 0
-1 -23 162 0
-1 -24 163 0
-1 -25 164 0
-2 -23 166 0
-2 -24 167 0
-2 -25 168 0
-3 -23 170 0
-3 -24 171 0
-3 -25 172 0
-4 -23 174 0
-4 -24 175 0
-4 -25 176 0
-5 -23 178 0
-5 -24 179 0
-5 -25 180 0
-6 -23 182 0
-6 -24 183 0
-6 -25 184 0
-7 -27 162 0
-7 -28 163 0
-7 -29 164 0
-8 -27 166 0
-8 -28 167 0
-8 -29 168 0
-9 -27 170 0
-9 -28 171 0
-9 -29 172 0
-10 -27 174 0
-10 -28 175 0
-10 -29 176 0
-11 -27 178 0
-11 -28 179 0
-11 -29 180 0
-12 -27 182 0
-12 -28 183 0
-12 -29 184 0
-13 -31 162 166 0
-13 -32 163 167 0
-13 -33 164 168 0
-14 -31 166 170 0
-14 -32 167 171 0
-14 -33 168 172 0
-15 -31 170 174 0
-15 -32 171 175 0
-15 -33 172 176 0
-16 -31 174 178 0
-16 -32 175 179 0
-16 -33 176 180 0
-17 -31 178 182 0
-17 -32 179 183 0
-17 -33 180 184 0
-18 -35 162 166 0
-18 -35 162 170 0
-18 -35 166 170 0
-18 -36 163 167 0
-18 -36 163 171 0
-18 -36 167 171 0
-18 -37 164 168 0
-18 -37 164 172 0
-18 -37 168 172 0
-19 -35 166 170 0
-19 -35 166 174 0
-19 -35 170 174 0
-19 -36 167 171 0
-19 -36 167 175 0
-19 -36 171 175 0
-19 -37 168 172 0
-19 -37 168 176 0
-19 -37 172 176 0
-20 -35 170 174 0
-20 -35 170 178 0
-20 -35 174 178 0
-20 -36 171 175 0
-20 -36 171 179 0
-20 -36 175 179 0
-20 -37 172 176 0
-20 -37 172 180 0
-20 -37 176 180 0
-21 -35 174 178 0
-21 -35 174 182 0
-21 -35 178 182 0
-21 -36 175 179 0
-21 -36 175 183 0
-21 -36 179 183 0
-21 -37 176 180 0
-21 -37 176 184 0
-21 -37 180 184 0
-1 -22 -38 -163 0
-1 -22 38 163 0
-1 -23 -38 -164 0
-1 -23 38 164 0
-1 -24 -38 -165 0
-1 -24 38 165 0
-1 -25 38 0
-2 -22 -38 -167 0
-2 -22 38 167 0
-2 -23 -38 -168 0
-2 -23 38 168 0
-2 -24 -38 -169 0
-2 -24 38 169 0
-2 -25 38 0
-3 -22 -38 -171 0
-3 -22 38 171 0
-3 -23 -38 -172 0
-3 -23 38 172 0
-3 -24 -38 -173 0
-3 -24 38 173 0
-3 -25 38 0
-4 -22 -38 -175 0
-4 -22 38 175 0
-4 -23 -38 -176 0
-4 -23 38 176 0
-4 -24 -38 -177 0
-4 -24 38 177 0
-4 -25 38 0
-5 -22 -38 -179 0
-5 -22 38 179 0
-5 -23 -38 -180 0
-5 -23 38 180 0
-5 -24 -38 -181 0
-5 -24 38 181 0
-5 -25 38 0
-6 -22 -38 -183 0
-6 -22 38 183 0
-6 -23 -38 -184 0
-6 -23 38 184 0
-6 -24 -38 -185 0
-6 -24 38 185 0
-6 -25 38 0
-7 -26 -39 -163 0
-7 -26 39 163 0
-7 -27 -39 -164 0
-7 -27 39 164 0
-7 -28 -39 -165 0
-7 -28 39 165 0
-7 -29 39 0
-8 -26 -39 -167 0
-8 -26 39 167 0
-8 -27 -39 -168 0
-8 -27 39 168 0
-8 -28 -39 -169 0
-8 -28 39 169 0
-8 -29 39 0
-9 -26 -39 -171 0
-9 -26 39 171 0
-9 -27 -39 -172 0
-9 -27 39 172 0
-9 -28 -39 -173 0
-9 -28 39 173 0
-9 -29 39 0
-10 -26 -39 -175 0
-10 -26 39 175 0
-10 -27 -39 -176 0
-10 -27 39 176 0
-10 -28 -39 -177 0
-10 -28 39 177 0
-10 -29 39 0
-11 -26 -39 -179 0
-11 -26 39 179 0
-11 -27 -39 -180 0
-11 -27 39 180 0
-11 -28 -39 -181 0
-11 -28 39 181 0
-11 -29 39 0
-12 -26 -39 -183 0
-12 -26 39 183 0
-12 -27 -39 -184 0
-12 -27 39 184 0
-12 -28 -39 -185 0
-12 -28 39 185 0
-12 -29 39 0
-13 -30 -40 -163 0
-13 -30 -40 -167 0
-13 -30 40 163 167 0
-13 -31 -40 -164 0
-13 -31 -40 -168 0
-13 -31 40 164 168 0
-13 -32 -40 -165 0
-13 -32 -40 -169 0
-13 -32 40 165 169 0
-13 -33 40 0
-14 -30 -40 -167 0
-14 -30 -40 -171 0
-14 -30 40 167 171 0
-14 -31 -40 -168 0
-14 -31 -40 -172 0
-14 -31 40 168 172 0
-14 -32 -40 -169 0
-14 -32 -40 -173 0
-14 -32 40 169 173 0
-14 -33 40 0
-15 -30 -40 -171 0
-15 -30 -40 -175 0
-15 -30 40 171 175 0
-15 -31 -40 -172 0
-15 -31 -40 -176 0
-15 -31 40 172 176 0
-15 -32 -40 -173 0
-15 -32 -40 -177 0
-15 -32 40 173 177 0
-15 -33 40 0
-16 -30 -40 -175 0
-16 -30 -40 -179 0
-16 -30 40 175 179 0
-16 -31 -40 -176 0
-16 -31 -40 -180 0
-16 -31 40 176 180 0
-16 -32 -40 -177 0
-16 -32 -40 -181 0
-16 -32 40 177 181 0
-16 -33 40 0
-17 -30 -40 -179 0
-17 -30 -40 -183 0
-17 -30 40 179 183 0
-17 -31 -40 -180 0
-17 -31 -40 -184 0
-17 -31 40 180 184 0
-17 -32 -40 -181 0
-17 -32 -40 -185 0
-17 -32 40 181 185 0
-17 -33 40 0
-18 -34 -41 -163 0
-18 -34 -41 -167 0
-18 -34 -41 -171 0
-18 -34 41 163 167 171 0
-18 -35 -41 -164 0
-18 -35 -41 -168 0
-18 -35 -41 -172 0
-18 -35 41 164 168 172 0
-18 -36 -41 -165 0
-18 -36 -41 -169 0
-18 -36 -41 -173 0
-18 -36 41 165 169 173 0
-18 -37 41 0
-19 -34 -41 -167 0
-19 -34 -41 -171 0
-19 -34 -41 -175 0
-19 -34 41 167 171 175 0
-19 -35 -41 -168 0
-19 -35 -41 -172 0
-19 -35 -41 -176 0
-19 -35 41 168 172 176 0
-19 -36 -41 -169 0
-19 -36 -41 -173 0
-19 -36 -41 -177 0
-19 -36 41 169 173 177 0
-19 -37 41 0
-20 -34 -41 -171 0
-20 -34 -41 -175 0
-20 -34 -41 -179 0
-20 -34 41 171 175 179 0
-20 -35 -41 -172 0
-20 -35 -41 -176 0
-20 -35 -41 -180 0
-20 -35 41 172 176 180 0
-20 -36 -41 -173 0
-20 -36 -41 -177 0
-20 -36 -41 -181 0
-20 -36 41 173 177 181 0
-20 -37 41 0
-21 -34 -41 -175 0
-21 -34 -41 -179 0
-21 -34 -41 -183 0
-21 -34 41 175 179 183 0
-21 -35 -41 -176 0
-21 -35 -41 -180 0
-21 -35 -41 -184 0
-21 -35 41 176 180 184 0
-21 -36 -41 -177 0
-21 -36 -41 -181 0
-21 -36 -41 -185 0
-21 -36 41 177 181 185 0
-21 -37 41 0
186 187 188 189 190 191 0
-186 -187 0
-186 -188 0
-186 -189 0
-186 -190 0
-186 -191 0
-187 -188 0
-187 -189 0
-187 -190 0
-187 -191 0
-188 -189 0
-188 -190 0
-188 -191 0
-189 -190 0
-189 -191 0
-190 -191 0
207 208 209 210 0
-207 -208 0
-207 -209 0
-207 -210 0
-208 -209 0
-208 -210 0
-209 -210 0
192 193 194 195 196 197 0
-192 -193 0
-192 -194 0
-192 -195 0
-192 -196 0
-192 -197 0
-193 -194 0
-193 -195 0
-193 -196 0
-193 -197 0
-194 -195 0
-194 -196 0
-194 -197 0
-195 -196 0
-195 -197 0
-196 -197 0
211 212 213 214 0
-211 -212 0
-211 -213 0
-211 -214 0
-212 -213 0
-212 -214 0
-213 -214 0
198 199 200 201 202 0
-198 -199 0
-198 -200 0
-198 -201 0
-198 -202 0
-199 -200 0
-199 -201 0
-199 -202 0
-200 -201 0
-200 -202 0
-201 -202 0
215 216 217 218 0
-215 -216 0
-215 -217 0
-215 -218 0
-216 -217 0
-216 -218 0
-217 -218 0
203 204 205 206 0
-203 -204 0
-203 -205 0
-203 -206 0
-204 -205 0
-204 -206 0
-205 -206 0
219 220 221 222 0
-219 -220 0
-219 -221 0
-219 -222 0
-220 -221 0
-220 -222 0
-221 -222 0
-227 186 0
-186 227 0
-251 227 0
-251 207 0
-227 -207 251 0
-252 227 0
-252 208 0
-227 -208 252 0
-253 227 0
-253 209 0
-227 -209 253 0
-254 227 0
-254 210 0
-227 -210 254 0
-228 187 0
-187 228 0
-255 228 0
-255 207 0
-228 -207 255 0
-256 228 0
-256 208 0
-228 -208 256 0
-257 228 0
-257 209 0
-228 -209 257 0
-258 228 0
-258 210 0
-228 -210 258 0
-229 188 0
-188 229 0
-259 229 0
-259 207 0
-229 -207 259 0
-260 229 0
-260 208 0
-229 -208 260 0
-261 229 0
-261 209 0
-229 -209 261 0
-262 229 0
-262 210 0
-229 -210 262 0
-230 189 0
-189 230 0
-263 230 0
-263 207 0
-230 -207 263 0
-264 230 0
-264 208 0
-230 -208 264 0
-265 230 0
-265 209 0
-230 -209 265 0
-266 230 0
-266 210 0
-230 -210 266 0
-231 190 0
-190 231 0
-267 231 0
-267 207 0
-231 -207 267 0
-268 231 0
-268 208 0
-231 -208 268 0
-269 231 0
-269 209 0
-231 -209 269 0
-270 231 0
-270 210 0
-231 -210 270 0
-232 191 0
-191 232 0
-271 232 0
-271 207 0
-232 -207 271 0
-272 232 0
-272 208 0
-232 -208 272 0
-273 232 0
-273 209 0
-232 -209 273 0
-274 232 0
-274 210 0
-232 -210 274 0
-233 192 0
-192 233 0
-275 233 0
-275 211 0
-233 -211 275 0
-276 233 0
-276 212 0
-233 -212 276 0
-277 233 0
-277 213 0
-233 -213 277 0
-278 233 0
-278 214 0
-233 -214 278 0
-234 193 0
-193 234 0
-279 234 0
-279 211 0
-234 -211 279 0
-280 234 0
-280 212 0
-234 -212 280 0
-281 234 0
-281 213 0
-234 -213 281 0
-282 234 0
-282 214 0
-234 -214 282 0
-235 194 0
-194 235 0
-283 235 0
-283 211 0
-235 -211 283 0
-284 235 0
-284 212 0
-235 -212 284 0
-285 235 0
-285 213 0
-235 -213 285 0
-286 235 0
-286 214 0
-235 -214 286 0
-236 195 0
-195 236 0
-287 236 0
-287 211 0
-236 -211 287 0
-288 236 0
-288 212 0
-236 -212 288 0
-289 236 0
-289 213 0
-236 -213 289 0
-290 236 0
-290 214 0
-236 -214 290 0
-237 196 0
-196 237 0
-291 237 0
-291 211 0
-237 -211 291 0
-292 237 0
-292 212 0
-237 -212 292 0
-293 237 0
-293 213 0
-237 -213 293 0
-294 237 0
-294 214 0
-237 -214 294 0
-238 197 0
-197 238 0
-295 238 0
-295 211 0
-238 -211 295 0
-296 238 0
-296 212 0
-238 -212 296 0
-297 238 0
-297 213 0
-238 -213 297 0
-298 238 0
-298 214 0
-238 -214 298 0
-239 198 0
-198 239 0
-299 239 0
-299 215 0
-239 -215 299 0
-300 239 0
-300 216 0
-239 -216 300 0
-301 239 0
-301 217 0
-239 -217 301 0
-302 239 0
-302 218 0
-239 -218 302 0
-240 198 199 0
-198 240 0
-199 240 0
-303 240 0
-303 215 0
-240 -215 303 0
-304 240 0
-304 216 0
-240 -216 304 0
-305 240 0
-305 217 0
-240 -217 305 0
-306 240 0
-306 218 0
-240 -218 306 0
-241 199 200 0
-199 241 0
-200 241 0
-307 241 0
-307 215 0
-241 -215 307 0
-308 241 0
-308 216 0
-241 -216 308 0
-309 241 0
-309 217 0
-241 -217 309 0
-310 241 0
-310 218 0
-241 -218 310 0
-242 200 201 0
-200 242 0
-201 242 0
-311 242 0
-311 215 0
-242 -215 311 0
-312 242 0
-312 216 0
-242 -216 312 0
-313 242 0
-313 217 0
-242 -217 313 0
-314 242 0
-314 218 0
-242 -218 314 0
-243 201 202 0
-201 243 0
-202 243 0
-315 243 0
-315 215 0
-243 -215 315 0
-316 243 0
-316 216 0
-243 -216 316 0
-317 243 0
-317 217 0
-243 -217 317 0
-318 243 0
-318 218 0
-243 -218 318 0
-244 202 0
-202 244 0
-319 244 0
-319 215 0
-244 -215 319 0
-320 244 0
-320 216 0
-244 -216 320 0
-321 244 0
-321 217 0
-244 -217 321 0
-322 244 0
-322 218 0
-244 -218 322 0
-245 203 0
-203 245 0
-323 245 0
-323 219 0
-245 -219 323 0
-324 245 0
-324 220 0
-245 -220 324 0
-325 245 0
-325 221 0
-245 -221 325 0
-326 245 0
-326 222 0
-245 -222 326 0
-246 203 204 0
-203 246 0
-204 246 0
-327 246 0
-327 219 0
-246 -219 327 0
-328 246 0
-328 220 0
-246 -220 328 0
-329 246 0
-329 221 0
-246 -221 329 0
-330 246 0
-330 222 0
-246 -222 330 0
-247 203 204 205 0
-203 247 0
-204 247 0
-205 247 0
-331 247 0
-331 219 0
-247 -219 331 0
-332 247 0
-332 220 0
-247 -220 332 0
-333 247 0
-333 221 0
-247 -221 333 0
-334 247 0
-334 222 0
-247 -222 334 0
-248 204 205 206 0
-204 248 0
-205 248 0
-206 248 0
-335 248 0
-335 219 0
-248 -219 335 0
-336 248 0
-336 220 0
-248 -220 336 0
-337 248 0
-337 221 0
-248 -221 337 0
-338 248 0
-338 222 0
-248 -222 338 0
-249 205 206 0
-205 249 0
-206 249 0
-339 249 0
-339 219 0
-249 -219 339 0
-340 249 0
-340 220 0
-249 -220 340 0
-341 249 0
-341 221 0
-249 -221 341 0
-342 249 0
-342 222 0
-249 -222 342 0
-250 206 0
-206 250 0
-343 250 0
-343 219 0
-250 -219 343 0
-344 250 0
-344 220 0
-250 -220 344 0
-345 250 0
-345 221 0
-250 -221 345 0
-346 250 0
-346 222 0
-250 -222 346 0
-347 251 275 299 323 0
-251 347 0
-275 347 0
-299 347 0
-323 347 0
-348 252 276 300 324 0
-252 348 0
-276 348 0
-300 348 0
-324 348 0
-349 253 277 301 325 0
-253 349 0
-277 349 0
-301 349 0
-325 349 0
-350 254 278 302 326 0
-254 350 0
-278 350 0
-302 350 0
-326 350 0
-351 255 279 303 327 0
-255 351 0
-279 351 0
-303 351 0
-327 351 0
-352 256 280 304 328 0
-256 352 0
-280 352 0
-304 352 0
-328 352 0
-353 257 281 305 329 0
-257 353 0
-281 353 0
-305 353 0
-329 353 0
-354 258 282 306 330 0
-258 354 0
-282 354 0
-306 354 0
-330 354 0
-355 259 283 307 331 0
-259 355 0
-283 355 0
-307 355 0
-331 355 0
-356 260 284 308 332 0
-260 356 0
-284 356 0
-308 356 0
-332 356 0
-357 261 285 309 333 0
-261 357 0
-285 357 0
-309 357 0
-333 357 0
-358 262 286 310 334 0
-262 358 0
-286 358 0
-310 358 0
-334 358 0
-359 263 287 311 335 0
-263 359 0
-287 359 0
-311 359 0
-335 359 0
-360 264 288 312 336 0
-264 360 0
-288 360 0
-312 360 0
-336 360 0
-361 265 289 313 337 0
-265 361 0
-289 361 0
-313 361 0
-337 361 0
-362 266 290 314 338 0
-266 362 0
-290 362 0
-314 362 0
-338 362 0
-363 267 291 315 339 0
-267 363 0
-291 363 0
-315 363 0
-339 363 0
-364 268 292 316 340 0
-268 364 0
-292 364 0
-316 364 0
-340 364 0
-365 269 293 317 341 0
-269 365 0
-293 365 0
-317 365 0
-341 365 0
-366 270 294 318 342 0
-270 366 0
-294 366 0
-318 366 0
-342 366 0
-367 271 295 319 343 0
-271 367 0
-295 367 0
-319 367 0
-343 367 0
-368 272 296 320 344 0
-272 368 0
-296 368 0
-320 368 0
-344 368 0
-369 273 297 321 345 0
-273 369 0
-297 369 0
-321 369 0
-345 369 0
-370 274 298 322 346 0
-274 370 0
-298 370 0
-322 370 0
-346 370 0
-251 -275 0
-251 -299 0
-251 -323 0
-275 -299 0
-275 -323 0
-299 -323 0
-252 -276 0
-252 -300 0
-252 -324 0
-276 -300 0
-276 -324 0
-300 -324 0
-253 -277 0
-253 -301 0
-253 -325 0
-277 -301 0
-277 -325 0
-301 -325 0
-254 -278 0
-254 -302 0
-254 -326 0
-278 -302 0
-278 -326 0
-302 -326 0
-255 -279 0
-255 -303 0
-255 -327 0
-279 -303 0
-279 -327 0
-303 -327 0
-256 -280 0
-256 -304 0
-256 -328 0
-280 -304 0
-280 -328 0
-304 -328 0
-257 -281 0
-257 -305 0
-257 -329 0
-281 -305 0
-281 -329 0
-305 -329 0
-258 -282 0
-258 -306 0
-258 -330 0
-282 -306 0
-282 -330 0
-306 -330 0
-259 -283 0
-259 -307 0
-259 -331 0
-283 -307 0
-283 -331 0
-307 -331 0
-260 -284 0
-260 -308 0
-260 -332 0
-284 -308 0
-284 -332 0
-308 -332 0
-261 -285 0
-261 -309 0
-261 -333 0
-285 -309 0
-285 -333 0
-309 -333 0
-262 -286 0
-262 -310 0
-262 -334 0
-286 -310 0
-286 -334 0
-310 -334 0
-263 -287 0
-263 -311 0
-263 -335 0
-287 -311 0
-287 -335 0
-311 -335 0
-264 -288 0
-264 -312 0
-264 -336 0
-288 -312 0
-288 -336 0
-312 -336 0
-265 -289 0
-265 -313 0
-265 -337 0
-289 -313 0
-289 -337 0
-313 -337 0
-266 -290 0
-266 -314 0
-266 -338 0
-290 -314 0
-290 -338 0
-314 -338 0
-267 -291 0
-267 -315 0
-267 -339 0
-291 -315 0
-291 -339 0
-315 -339 0
-268 -292 0
-268 -316 0
-268 -340 0
-292 -316 0
-292 -340 0
-316 -340 0
-269 -293 0
-269 -317 0
-269 -341 0
-293 -317 0
-293 -341 0
-317 -341 0
-270 -294 0
-270 -318 0
-270 -342 0
-294 -318 0
-294 -342 0
-318 -342 0
-271 -295 0
-271 -319 0
-271 -343 0
-295 -319 0
-295 -343 0
-319 -343 0
-272 -296 0
-272 -320 0
-272 -344 0
-296 -320 0
-296 -344 0
-320 -344 0
-273 -297 0
-273 -321 0
-273 -345 0
-297 -321 0
-297 -345 0
-321 -345 0
-274 -298 0
-274 -322 0
-274 -346 0
-298 -322 0
-298 -346 0
-322 -346 0
-186 -208 347 0
-186 -209 348 0
-186 -210 349 0
-187 -208 351 0
-187 -209 352 0
-187 -210 353 0
-188 -208 355 0
-188 -209 356 0
-188 -210 357 0
-189 -208 359 0
-189 -209 360 0
-189 -210 361 0
-190 -208 363 0
-190 -209 364 0
-190 -210 365 0
-191 -208 367 0
-191 -209 368 0
-191 -210 369 0
-192 -212 347 0
-192 -213 348 0
-192 -214 349 0
-193 -212 351 0
-193 -213 352 0
-193 -214 353 0
-194 -212 355 0
-194 -213 356 0
-194 -214 357 0
-195 -212 359 0
-195 -213 360 0
-195 -214 361 0
-196 -212 363 0
-196 -213 364 0
-196 -214 365 0
-197 -212 367 0
-197 -213 368 0
-197 -214 369 0
-198 -216 347 351 0
-198 -217 348 352 0
-198 -218 349 353 0
-199 -216 351 355 0
-199 -217 352 356 0
-199 -218 353 357 0
-200 -216 355 359 0
-200 -217 356 360 0
-200 -218 357 361 0
-201 -216 359 363 0
-201 -217 360 364 0
-201 -218 361 365 0
-202 -216 363 367 0
-202 -217 364 368 0
-202 -218 365 369 0
-203 -220 347 351 0
-203 -220 347 355 0
-203 -220 351 355 0
-203 -221 348 352 0
-203 -221 348 356 0
-203 -221 352 356 0
-203 -222 349 353 0
-203 -222 349 357 0
-203 -222 353 357 0
-204 -220 351 355 0
-204 -220 351 359 0
-204 -220 355 359 0
-204 -221 352 356 0
-204 -221 352 360 0
-204 -221 356 360 0
-204 -222 353 357 0
-204 -222 353 361 0
-204 -222 357 361 0
-205 -220 355 359 0
-205 -220 355 363 0
-205 -220 359 363 0
-205 -221 356 360 0
-205 -221 356 364 0
-205 -221 360 364 0
-205 -222 357 361 0
-205 -222 357 365 0
-205 -222 361 365 0
-206 -220 359 363 0
-206 -220 359 367 0
-206 -220 363 367 0
-206 -221 360 364 0
-206 -221 360 368 0
-206 -221 364 368 0
-206 -222 361 365 0
-206 -222 361 369 0
-206 -222 365 369 0
-186 -207 -223 -348 0
-186 -207 223 348 0
-186 -208 -223 -349 0
-186 -208 223 349 0
-186 -209 -223 -350 0
-186 -209 223 350 0
-186 -210 223 0
-187 -207 -223 -352 0
-187 -207 223 352 0
-187 -208 -223 -353 0
-187 -208 223 353 0
-187 -209 -223 -354 0
-187 -209 223 354 0
-187 -210 223 0
-188 -207 -223 -356 0
-188 -207 223 356 0
-188 -208 -223 -357 0
-188 -208 223 357 0
-188 -209 -223 -358 0
-188 -209 223 358 0
-188 -210 223 0
-189 -207 -223 -360 0
-189 -207 223 360 0
-189 -208 -223 -361 0
-189 -208 223 361 0
-189 -209 -223 -362 0
-189 -209 223 362 0
-189 -210 223 0
-190 -207 -223 -364 0
-190 -207 223 364 0
-190 -208 -223 -365 0
-190 -208 223 365 0
-190 -209 -223 -366 0
-190 -209 223 366 0
-190 -210 223 0
-191 -207 -223 -368 0
-191 -207 223 368 0
-191 -208 -223 -369 0
-191 -208 223 369 0
-191 -209 -223 -370 0
-191 -209 223 370 0
-191 -210 223 0
-192 -211 -224 -348 0
-192 -211 224 348 0
-192 -212 -224 -349 0
-192 -212 224 349 0
-192 -213 -224 -350 0
-192 -213 224 350 0
-192 -214 224 0
-193 -211 -224 -352 0
-193 -211 224 352 0
-193 -212 -224 -353 0
-193 -212 224 353 0
-193 -213 -224 -354 0
-193 -213 224 354 0
-193 -214 224 0
-194 -211 -224 -356 0
-194 -211 224 356 0
-194 -212 -224 -357 0
-194 -212 224 357 0
-194 -213 -224 -358 0
-194 -213 224 358 0
-194 -214 224 0
-195 -211 -224 -360 0
-195 -211 224 360 0
-195 -212 -224 -361 0
-195 -212 224 361 0
-195 -213 -224 -362 0
-195 -213 224 362 0
-195 -214 224 0
-196 -211 -224 -364 0
-196 -211 224 364 0
-196 -212 -224 -365 0
-196 -212 224 365 0
-196 -213 -224 -366 0
-196 -213 224 366 0
-196 -214 224 0
-197 -211 -224 -368 0
-197 -211 224 368 0
-197 -212 -224 -369 0
-197 -212 224 369 0
-197 -213 -224 -370 0
-197 -213 224 370 0
-197 -214 224 0
-198 -215 -225 -348 0
-198 -215 -225 -352 0
-198 -215 225 348 352 0
-198 -216 -225 -349 0
-198 -216 -225 -353 0
-198 -216 225 349 353 0
-198 -217 -225 -350 0
-198 -217 -225 -354 0
-198 -217 225 350 354 0
-198 -218 225 0
-199 -215 -225 -352 0
-199 -215 -225 -356 0
-199 -215 225 352 356 0
-199 -216 -225 -353 0
-199 -216 -225 -357 0
-199 -216 225 353 357 0
-199 -217 -225 -354 0
-199 -217 -225 -358 0
-199 -217 225 354 358 0
-199 -218 225 0
-200 -215 -225 -356 0
-200 -215 -225 -360 0
-200 -215 225 356 360 0
-200 -216 -225 -357 0
-200 -216 -225 -361 0
-200 -216 225 357 361 0
-200 -217 -225 -358 0
-200 -217 -225 -362 0
-200 -217 225 358 362 0
-200 -218 225 0
-201 -215 -225 -360 0
-201 -215 -225 -364 0
-201 -215 225 360 364 0
-201 -216 -225 -361 0
-201 -216 -225 -365 0
-201 -216 225 361 365 0
-201 -217 -225 -362 0
-201 -217 -225 -366 0
-201 -217 225 362 366 0
-201 -218 225 0
-202 -215 -225 -364 0
-202 -215 -225 -368 0
-202 -215 225 364 368 0
-202 -216 -225 -365 0
-202 -216 -225 -369 0
-202 -216 225 365 369 0
-202 -217 -225 -366 0
-202 -217 -225 -370 0
-202 -217 225 366 370 0
-202 -218 225 0
-203 -219 -226 -348 0
-203 -219 -226 -352 0
-203 -219 -226 -356 0
-203 -219 226 348 352 356 0
-203 -220 -226 -349 0
-203 -220 -226 -353 0
-203 -220 -226 -357 0
-203 -220 226 349 353 357 0
-203 -221 -226 -350 0
-203 -221 -226 -354 0
-203 -221 -226 -358 0
-203 -221 226 350 354 358 0
-203 -222 226 0
-204 -219 -226 -352 0
-204 -219 -226 -356 0
-204 -219 -226 -360 0
-204 -219 226 352 356 360 0
-204 -220 -226 -353 0
-204 -220 -226 -357 0
-204 -220 -226 -361 0
-204 -220 226 353 357 361 0
-204 -221 -226 -354 0
-204 -221 -226 -358 0
-204 -221 -226 -362 0
-204 -221 226 354 358 362 0
-204 -222 226 0
-205 -219 -226 -356 0
-205 -219 -226 -360 0
-205 -219 -226 -364 0
-205 -219 226 356 360 364 0
-205 -220 -226 -357 0
-205 -220 -226 -361 0
-205 -220 -226 -365 0
-205 -220 226 357 361 365 0
-205 -221 -226 -358 0
-205 -221 -226 -362 0
-205 -221 -226 -366 0
-205 -221 226 358 362 366 0
-205 -222 226 0
-206 -219 -226 -360 0
-206 -219 -226 -364 0
-206 -219 -226 -368 0
-206 -219 226 360 364 368 0
-206 -220 -226 -361 0
-206 -220 -226 -365 0
-206 -220 -226 -369 0
-206 -220 226 361 365 369 0
-206 -221 -226 -362 0
-206 -221 -226 -366 0
-206 -221 -226 -370 0
-206 -221 226 362 366 370 0
-206 -222 226 0
371 372 373 374 375 376 0
-371 -372 0
-371 -373 0
-371 -374 0
-371 -375 0
-371 -376 0
-372 -373 0
-372 -374 0
-372 -375 0
-372 -376 0
-373 -374 0
-373 -375 0
-373 -376 0
-374 -375 0
-374 -376 0
-375 -376 0
392 393 394 395 0
-392 -393 0
-392 -394 0
-392 -395 0
-393 -394 0
-393 -395 0
-394 -395 0
377 378 379 380 381 382 0
-377 -378 0
-377 -379 0
-377 -380 0
-377 -381 0
-377 -382 0
-378 -379 0
-378 -380 0
-378 -381 0
-378 -382 0
-379 -380 0
-379 -381 0
-379 -382 0
-380 -381 0
-380 -382 0
-381 -382 0
396 397 398 399 0
-396 -397 0
-396 -398 0
-396 -399 0
-397 -398 0
-397 -399 0
-398 -399 0
383 384 385 386 387 0
-383 -384 0
-383 -385 0
-383 -386 0
-383 -387 0
-384 -385 0
-384 -386 0
-384 -387 0
-385 -386 0
-385 -387 0
-386 -387 0
400 401 402 403 0
-400 -401 0
-400 -402 0
-400 -403 0
-401 -402 0
-401 -403 0
-402 -403 0
388 389 390 391 0
-388 -389 0
-388 -390 0
-388 -391 0
-389 -390 0
-389 -391 0
-390 -391 0
404 405 406 407 0
-404 -405 0
-404 -406 0
-404 -407 0
-405 -406 0
-405 -407 0
-406 -407 0
-412 371 0
-371 412 0
-436 412 0
-436 392 0
-412 -392 436 0
-437 412 0
-437 393 0
-412 -393 437 0
-438 412 0
-438 394 0
-412 -394 438 0
-439 412 0
-439 395 0
-412 -395 439 0
-413 372 0
-372 413 0
-440 413 0
-440 392 0
-413 -392 440 0
-441 413 0
-441 393 0
-413 -393 441 0
-442 413 0
-442 394 0
-413 -394 442 0
-443 413 0
-443 395 0
-413 -395 443 0
-414 373 0
-373 414 0
-444 414 0
-444 392 0
-414 -392 444 0
-445 414 0
-445 393 0
-414 -393 445 0
-446 414 0
-446 394 0
-414 -394 446 0
-447 414 0
-447 395 0
-414 -395 447 0
-415 374 0
-374 415 0
-448 415 0
-448 392 0
-415 -392 448 0
-449 415 0
-449 393 0
-415 -393 449 0
-450 415 0
-450 394 0
-415 -394 450 0
-451 415 0
-451 395 0
-415 -395 451 0
-416 375 0
-375 416 0
-452 416 0
-452 392 0
-416 -392 452 0
-453 416 0
-453 393 0
-416 -393 453 0
-454 416 0
-454 394 0
-416 -394 454 0
-455 416 0
-455 395 0
-416 -395 455 0
-417 376 0
-376 417 0
-456 417 0
-456 392 0
-417 -392 456 0
-457 417 0
-457 393 0
-417 -393 457 0
-458 417 0
-458 394 0
-417 -394 458 0
-459 417 0
-459 395 0
-417 -395 459 0
-418 377 0
-377 418 0
-460 418 0
-460 396 0
-418 -396 460 0
-461 418 0
-461 397 0
-418 -397 461 0
-462 418 0
-462 398 0
-418 -398 462 0
-463 418 0
-463 399 0
-418 -399 463 0
-419 378 0
-378 419 0
-464 419 0
-464 396 0
-419 -396 464 0
-465 419 0
-465 397 0
-419 -397 465 0
-466 419 0
-466 398 0
-419 -398 466 0
-467 419 0
-467 399 0
-419 -399 467 0
-420 379 0
-379 420 0
-468 420 0
-468 396 0
-420 -396 468 0
-469 420 0
-469 397 0
-420 -397 469 0
-470 420 0
-470 398 0
-420 -398 470 0
-471 420 0
-471 399 0
-420 -399 471 0
-421 380 0
-380 421 0
-472 421 0
-472 396 0
-421 -396 472 0
-473 421 0
-473 397 0
-421 -397 473 0
-474 421 0
-474 398 0
-421 -398 474 0
-475 421 0
-475 399 0
-421 -399 475 0
-422 381 0
-381 422 0
-476 422 0
-476 396 0
-422 -396 476 0
-477 422 0
-477 397 0
-422 -397 477 0
-478 422 0
-478 398 0
-422 -398 478 0
-479 422 0
-479 399 0
-422 -399 479 0
-423 382 0
-382 423 0
-480 423 0
-480 396 0
-423 -396 480 0
-481 423 0
-481 397 0
-423 -397 481 0
-482 423 0
-482 398 0
-423 -398 482 0
-483 423 0
-483 399 0
-423 -399 483 0
-424 383 0
-383 424 0
-484 424 0
-484 400 0
-424 -400 484 0
-485 424 0
-485 401 0
-424 -401 485 0
-486 424 0
-486 402 0
-424 -402 486 0
-487 424 0
-487 403 0
-424 -403 487 0
-425 383 384 0
-383 425 0
-384 425 0
-488 425 0
-488 400 0
-425 -400 488 0
-489 425 0
-489 401 0
-425 -401 489 0
-490 425 0
-490 402 0
-425 -402 490 0
-491 425 0
-491 403 0
-425 -403 491 0
-426 384 385 0
-384 426 0
-385 426 0
-492 426 0
-492 400 0
-426 -400 492 0
-493 426 0
-493 401 0
-426 -401 493 0
-494 426 0
-494 402 0
-426 -402 494 0
-495 426 0
-495 403 0
-426 -403 495 0
-427 385 386 0
-385 427 0
-386 427 0
-496 427 0
-496 400 0
-427 -400 496 0
-497 427 0
-497 401 0
-427 -401 497 0
-498 427 0
-498 402 0
-427 -402 498 0
-499 427 0
-499 403 0
-427 -403 499 0
-428 386 387 0
-386 428 0
-387 428 0
-500 428 0
-500 400 0
-428 -400 500 0
-501 428 0
-501 401 0
-428 -401 501 0
-502 428 0
-502 402 0
-428 -402 502 0
-503 428 0
-503 403 0
-428 -403 503 0
-429 387 0
-387 429 0
-504 429 0
-504 400 0
-429 -400 504 0
-505 429 0
-505 401 0
-429 -401 505 0
-506 429 0
-506 402 0
-429 -402 506 0
-507 429 0
-507 403 0
-429 -403 507 0
-430 388 0
-388 430 0
-508 430 0
-508 404 0
-430 -404 508 0
-509 430 0
-509 405 0
-430 -405 509 0
-510 430 0
-510 406 0
-430 -406 510 0
-511 430 0
-511 407 0
-430 -407 511 0
-431 388 389 0
-388 431 0
-389 431 0
-512 431 0
-512 404 0
-431 -404 512 0
-513 431 0
-513 405 0
-431 -405 513 0
-514 431 0
-514 406 0
-431 -406 514 0
-515 431 0
-515 407 0
-431 -407 515 0
-432 388 389 390 0
-388 432 0
-389 432 0
-390 432 0
-516 432 0
-516 404 0
-432 -404 516 0
-517 432 0
-517 405 0
-432 -405 517 0
-518 432 0
-518 406 0
-432 -406 518 0
-519 432 0
-519 407 0
-432 -407 519 0
-433 389 390 391 0
-389 433 0
-390 433 0
-391 433 0
-520 433 0
-520 404 0
-433 -404 520 0
-521 433 0
-521 405 0
-433 -405 521 0
-522 433 0
-522 406 0
-433 -406 522 0
-523 433 0
-523 407 0
-433 -407 523 0
-434 390 391 0
-390 434 0
-391 434 0
-524 434 0
-524 404 0
-434 -404 524 0
-525 434 0
-525 405 0
-434 -405 525 0
-526 434 0
-526 406 0
-434 -406 526 0
-527 434 0
-527 407 0
-434 -407 527 0
-435 391 0
-391 435 0
-528 435 0
-528 404 0
-435 -404 528 0
-529 435 0
-529 405 0
-435 -405 529 0
-530 435 0
-530 406 0
-435 -406 530 0
-531 435 0
-531 407 0
-435 -407 531 0
-532 436 460 484 508 0
-436 532 0
-460 532 0
-484 532 0
-508 532 0
-533 437 461 485 509 0
-437 533 0
-461 533 0
-485 533 0
-509 533 0
-534 438 462 486 510 0
-438 534 0
-462 534 0
-486 534 0
-510 534 0
-535 439 463 487 511 0
-439 535 0
-463 535 0
-487 535 0
-511 535 0
-536 440 464 488 512 0
-440 536 0
-464 536 0
-488 536 0
-512 536 0
-537 441 465 489 513 0
-441 537 0
-465 537 0
-489 537 0
-513 537 0
-538 442 466 490 514 0
-442 538 0
-466 538 0
-490 538 0
-514 538 0
-539 443 467 491 515 0
-443 539 0
-467 539 0
-491 539 0
-515 539 0
-540 444 468 492 516 0
-444 540 0
-468 540 0
-492 540 0
-516 540 0
-541 445 469 493 517 0
-445 541 0
-469 541 0
-493 541 0
-517 541 0
-542 446 470 494 518 0
-446 542 0
-470 542 0
-494 542 0
-518 542 0
-543 447 471 495 519 0
-447 543 0
-471 543 0
-495 543 0
-519 543 0
-544 448 472 496 520 0
-448 544 0
-472 544 0
-496 544 0
-520 544 0
-545 449 473 497 521 0
-449 545 0
-473 545 0
-497 545 0
-521 545 0
-546 450 474 498 522 0
-450 546 0
-474 546 0
-498 546 0
-522 546 0
-547 451 475 499 523 0
-451 547 0
-475 547 0
-499 547 0
-523 547 0
-548 452 476 500 524 0
-452 548 0
-476 548 0
-500 548 0
-524 548 0
-549 453 477 501 525 0
-453 549 0
-477 549 0
-501 549 0
-525 549 0
-550 454 478 502 526 0
-454 550 0
-478 550 0
-502 550 0
-526 550 0
-551 455 479 503 527 0
-455 551 0
-479 551 0
-503 551 0
-527 551 0
-552 456 480 504 528 0
-456 552 0
-480 552 0
-504 552 0
-528 552 0
-553 457 481 505 529 0
-457 553 0
-481 553 0
-505 553 0
-529 553 0
-554 458 482 506 530 0
-458 554 0
-482 554 0
-506 554 0
-530 554 0
-555 459 483 507 531 0
-459 555 0
-483 555 0
-507 555 0
-531 555 0
-436 -460 0
-436 -484 0
-436 -508 0
-460 -484 0
-460 -508 0
-484 -508 0
-437 -461 0
-437 -485 0
-437 -509 0
-461 -485 0
-461 -509 0
-485 -509 0
-438 -462 0
-438 -486 0
-438 -510 0
-462 -486 0
-462 -510 0
-486 -510 0
-439 -463 0
-439 -487 0
-439 -511 0
-463 -487 0
-463 -511 0
-487 -511 0
-440 -464 0
-440 -488 0
-440 -512 0
-464 -488 0
-464 -512 0
-488 -512 0
-441 -465 0
-441 -489 0
-441 -513 0
-465 -489 0
-465 -513 0
-489 -513 0
-442 -466 0
-442 -490 0
-442 -514 0
-466 -490 0
-466 -514 0
-490 -514 0
-443 -467 0
-443 -491 0
-443 -515 0
-467 -491 0
-467 -515 0
-491 -515 0
-444 -468 0
-444 -492 0
-444 -516 0
-468 -492 0
-468 -516 0
-492 -516 0
-445 -469 0
-445 -493 0
-445 -517 0
-469 -493 0
-469 -517 0
-493 -517 0
-446 -470 0
-446 -494 0
-446 -518 0
-470 -494 0
-470 -518 0
-494 -518 0
-447 -471 0
-447 -495 0
-447 -519 0
-471 -495 0
-471 -519 0
-495 -519 0
-448 -472 0
-448 -496 0
-448 -520 0
-472 -496 0
-472 -520 0
-496 -520 0
-449 -473 0
-449 -497 0
-449 -521 0
-473 -497 0
-473 -521 0
-497 -521 0
-450 -474 0
-450 -498 0
-450 -522 0
-474 -498 0
-474 -522 0
-498 -522 0
-451 -475 0
-451 -499 0
-451 -523 0
-475 -499 0
-475 -523 0
-499 -523 0
-452 -476 0
-452 -500 0
-452 -524 0
-476 -500 0
-476 -524 0
-500 -524 0
-453 -477 0
-453 -501 0
-453 -525 0
-477 -501 0
-477 -525 0
-501 -525 0
-454 -478 0
-454 -502 0
-454 -526 0
-478 -502 0
-478 -526 0
-502 -526 0
-455 -479 0
-455 -503 0
-455 -527 0
-479 -503 0
-479 -527 0
-503 -527 0
-456 -480 0
-456 -504 0
-456 -528 0
-480 -504 0
-480 -528 0
-504 -528 0
-457 -481 0
-457 -505 0
-457 -529 0
-481 -505 0
-481 -529 0
-505 -529 0
-458 -482 0
-458 -506 0
-458 -530 0
-482 -506 0
-482 -530 0
-506 -530 0
-459 -483 0
-459 -507 0
-459 -531 0
-483 -507 0
-483 -531 0
-507 -531 0
-371 -393 532 0
-371 -394 533 0
-371 -395 534 0
-372 -393 536 0
-372 -394 537 0
-372 -395 538 0
-373 -393 540 0
-373 -394 541 0
-373 -395 542 0
-374 -393 544 0
-374 -394 545 0
-374 -395 546 0
-375 -393 548 0
-375 -394 549 0
-375 -395 550 0
-376 -393 552 0
-376 -394 553 0
-376 -395 554 0
-377 -397 532 0
-377 -398 533 0
-377 -399 534 0
-378 -397 536 0
-378 -398 537 0
-378 -399 538 0
-379 -397 540 0
-379 -398 541 0
-379 -399 542 0
-380 -397 544 0
-380 -398 545 0
-380 -399 546 0
-381 -397 548 0
-381 -398 549 0
-381 -399 550 0
-382 -397 552 0
-382 -398 553 0
-382 -399 554 0
-383 -401 532 536 0
-383 -402 533 537 0
-383 -403 534 538 0
-384 -401 536 540 0
-384 -402 537 541 0
-384 -403 538 542 0
-385 -401 540 544 0
-385 -402 541 545 0
-385 -403 542 546 0
-386 -401 544 548 0
-386 -402 545 549 0
-386 -403 546 550 0
-387 -401 548 552 0
-387 -402 549 553 0
-387 -403 550 554 0
-388 -405 532 536 0
-388 -405 532 540 0
-388 -405 536 540 0
-388 -406 533 537 0
-388 -406 533 541 0
-388 -406 537 541 0
-388 -407 534 538 0
-388 -407 534 542 0
-388 -407 538 542 0
-389 -405 536 540 0
-389 -405 536 544 0
-389 -405 540 544 0
-389 -406 537 541 0
-389 -406 537 545 0
-389 -406 541 545 0
-389 -407 538 542 0
-389 -407 538 546 0
-389 -407 542 546 0
-390 -405 540 544 0
-390 -405 540 548 0
-390 -405 544 548 0
-390 -406 541 545 0
-390 -406 541 549 0
-390 -406 545 549 0
-390 -407 542 546 0
-390 -407 542 550 0
-390 -407 546 550 0
-391 -405 544 548 0
-391 -405 544 552 0
-391 -405 548 552 0
-391 -406 545 549 0
-391 -406 545 553 0
-391 -406 549 553 0
-391 -407 546 550 0
-391 -407 546 554 0
-391 -407 550 554 0
-371 -392 -408 -533 0
-371 -392 408 533 0
-371 -393 -408 -534 0
-371 -393 408 534 0
-371 -394 -408 -535 0
-371 -394 408 535 0
-371 -395 408 0
-372 -392 -408 -537 0
-372 -392 408 537 0
-372 -393 -408 -538 0
-372 -393 408 538 0
-372 -394 -408 -539 0
-372 -394 408 539 0
-372 -395 408 0
-373 -392 -408 -541 0
-373 -392 408 541 0
-373 -393 -408 -542 0
-373 -393 408 542 0
-373 -394 -408 -543 0
-373 -394 408 543 0
-373 -395 408 0
-374 -392 -408 -545 0
-374 -392 408 545 0
-374 -393 -408 -546 0
-374 -393 408 546 0
-374 -394 -408 -547 0
-374 -394 408 547 0
-374 -395 408 0
-375 -392 -408 -549 0
-375 -392 408 549 0
-375 -393 -408 -550 0
-375 -393 408 550 0
-375 -394 -408 -551 0
-375 -394 408 551 0
-375 -395 408 0
-376 -392 -408 -553 0
-376 -392 408 553 0
-376 -393 -408 -554 0
-376 -393 408 554 0
-376 -394 -408 -555 0
-376 -394 408 555 0
-376 -395 408 0
-377 -396 -409 -533 0
-377 -396 409 533 0
-377 -397 -409 -534 0
-377 -397 409 534 0
-377 -398 -409 -535 0
-377 -398 409 535 0
-377 -399 409 0
-378 -396 -409 -537 0
-378 -396 409 537 0
-378 -397 -409 -538 0
-378 -397 409 538 0
-378 -398 -409 -539 0
-378 -398 409 539 0
-378 -399 409 0
-379 -396 -409 -541 0
-379 -396 409 541 0
-379 -397 -409 -542 0
-379 -397 409 542 0
-379 -398 -409 -543 0
-379 -398 409 543 0
-379 -399 409 0
-380 -396 -409 -545 0
-380 -396 409 545 0
-380 -397 -409 -546 0
-380 -397 409 546 0
-380 -398 -409 -547 0
-380 -398 409 547 0
-380 -399 409 0
-381 -396 -409 -549 0
-381 -396 409 549 0
-381 -397 -409 -550 0
-381 -397 409 550 0
-381 -398 -409 -551 0
-381 -398 409 551 0
-381 -399 409 0
-382 -396 -409 -553 0
-382 -396 409 553 0
-382 -397 -409 -554 0
-382 -397 409 554 0
-382 -398 -409 -555 0
-382 -398 409 555 0
-382 -399 409 0
-383 -400 -410 -533 0
-383 -400 -410 -537 0
-383 -400 410 533 537 0
-383 -401 -410 -534 0
-383 -401 -410 -538 0
-383 -401 410 534 538 0
-383 -402 -410 -535 0
-383 -402 -410 -539 0
-383 -402 410 535 539 0
-383 -403 410 0
-384 -400 -410 -537 0
-384 -400 -410 -541 0
-384 -400 410 537 541 0
-384 -401 -410 -538 0
-384 -401 -410 -542 0
-384 -401 410 538 542 0
-384 -402 -410 -539 0
-384 -402 -410 -543 0
-384 -402 410 539 543 0
-384 -403 410 0
-385 -400 -410 -541 0
-385 -400 -410 -545 0
-385 -400 410 541 545 0
-385 -401 -410 -542 0
-385 -401 -410 -546 0
-385 -401 410 542 546 0
-385 -402 -410 -543 0
-385 -402 -410 -547 0
-385 -402 410 543 547 0
-385 -403 410 0
-386 -400 -410 -545 0
-386 -400 -410 -549 0
-386 -400 410 545 549 0
-386 -401 -410 -546 0
-386 -401 -410 -550 0
-386 -401 410 546 550 0
-386 -402 -410 -547 0
-386 -402 -410 -551 0
-386 -402 410 547 551 0
-386 -403 410 0
-387 -400 -410 -549 0
-387 -400 -410 -553 0
-387 -400 410 549 553 0
-387 -401 -410 -550 0
-387 -401 -410 -554 0
-387 -401 410 550 554 0
-387 -402 -410 -551 0
-387 -402 -410 -555 0
-387 -402 410 551 555 0
-387 -403 410 0
-388 -404 -411 -533 0
-388 -404 -411 -537 0
-388 -404 -411 -541 0
-388 -404 411 533 537 541 0
-388 -405 -411 -534 0
-388 -405 -411 -538 0
-388 -405 -411 -542 0
-388 -405 411 534 538 542 0
-388 -406 -411 -535 0
-388 -406 -411 -539 0
-388 -406 -411 -543 0
-388 -406 411 535 539 543 0
-388 -407 411 0
-389 -404 -411 -537 0
-389 -404 -411 -541 0
-389 -404 -411 -545 0
-389 -404 411 537 541 545 0
-389 -405 -411 -538 0
-389 -405 -411 -542 0
-389 -405 -411 -546 0
-389 -405 411 538 542 546 0
-389 -406 -411 -539 0
-389 -406 -411 -543 0
-389 -406 -411 -547 0
-389 -406 411 539 543 547 0
-389 -407 411 0
-390 -404 -411 -541 0
-390 -404 -411 -545 0
-390 -404 -411 -549 0
-390 -404 411 541 545 549 0
-390 -405 -411 -542 0
-390 -405 -411 -546 0
-390 -405 -411 -550 0
-390 -405 411 542 546 550 0
-390 -406 -411 -543 0
-390 -406 -411 -547 0
-390 -406 -411 -551 0
-390 -406 411 543 547 551 0
-390 -407 411 0
-391 -404 -411 -545 0
-391 -404 -411 -549 0
-391 -404 -411 -553 0
-391 -404 411 545 549 553 0
-391 -405 -411 -546 0
-391 -405 -411 -550 0
-391 -405 -411 -554 0
-391 -405 411 546 550 554 0
-391 -406 -411 -547 0
-391 -406 -411 -551 0
-391 -406 -411 -555 0
-391 -406 411 547 551 555 0
-391 -407 411 0
556 557 558 559 560 561 0
-556 -557 0
-556 -558 0
-556 -559 0
-556 -560 0
-556 -561 0
-557 -558 0
-557 -559 0
-557 -560 0
-557 -561 0
-558 -559 0
-558 -560 0
-558 -561 0
-559 -560 0
-559 -561 0
-560 -561 0
577 578 579 580 0
-577 -578 0
-577 -579 0
-577 -580 0
-578 -579 0
-578 -580 0
-579 -580 0
562 563 564 565 566 567 0
-562 -563 0
-562 -564 0
-562 -565 0
-562 -566 0
-562 -567 0
-563 -564 0
-563 -565 0
-563 -566 0
-563 -567 0
-564 -565 0
-564 -566 0
-564 -567 0
-565 -566 0
-565 -567 0
-566 -567 0
581 582 583 584 0
-581 -582 0
-581 -583 0
-581 -584 0
-582 -583 0
-582 -584 0
-583 -584 0
568 569 570 571 572 0
-568 -569 0
-568 -570 0
-568 -571 0
-568 -572 0
-569 -570 0
-569 -571 0
-569 -572 0
-570 -571 0
-570 -572 0
-571 -572 0
585 586 587 588 0
-585 -586 0
-585 -587 0
-585 -588 0
-586 -587 0
-586 -588 0
-587 -588 0
573 574 575 576 0
-573 -574 0
-573 -575 0
-573 -576 0
-574 -575 0
-574 -576 0
-575 -576 0
589 590 591 592 0
-589 -590 0
-589 -591 0
-589 -592 0
-590 -591 0
-590 -592 0
-591 -592 0
-597 556 0
-556 597 0
-621 597 0
-621 577 0
-597 -577 621 0
-622 597 0
-622 578 0
-597 -578 622 0
-623 597 0
-623 579 0
-597 -579 623 0
-624 597 0
-624 580 0
-597 -580 624 0
-598 557 0
-557 598 0
-625 598 0
-625 577 0
-598 -577 625 0
-626 598 0
-626 578 0
-598 -578 626 0
-627 598 0
-627 579 0
-598 -579 627 0
-628 598 0
-628 580 0
-598 -580 628 0
-599 558 0
-558 599 0
-629 599 0
-629 577 0
-599 -577 629 0
-630 599 0
-630 578 0
-599 -578 630 0
-631 599 0
-631 579 0
-599 -579 631 0
-632 599 0
-632 580 0
-599 -580 632 0
-600 559 0
-559 600 0
-633 600 0
-633 577 0
-600 -577 633 0
-634 600 0
-634 578 0
-600 -578 634 0
-635 600 0
-635 579 0
-600 -579 635 0
-636 600 0
-636 580 0
-600 -580 636 0
-601 560 0
-560 601 0
-637 601 0
-637 577 0
-601 -577 637 0
-638 601 0
-638 578 0
-601 -578 638 0
-639 601 0
-639 579 0
-601 -579 639 0
-640 601 0
-640 580 0
-601 -580 640 0
-602 561 0
-561 602 0
-641 602 0
-641 577 0
-602 -577 641 0
-642 602 0
-642 578 0
-602 -578 642 0
-643 602 0
-643 579 0
-602 -579 643 0
-644 602 0
-644 580 0
-602 -580 644 0
-603 562 0
-562 603 0
-645 603 0
-645 581 0
-603 -581 645 0
-646 603 0
-646 582 0
-603 -582 646 0
-647 603 0
-647 583 0
-603 -583 647 0
-648 603 0
-648 584 0
-603 -584 648 0
-604 563 0
-563 604 0
-649 604 0
-649 581 0
-604 -581 649 0
-650 604 0
-650 582 0
-604 -582 650 0
-651 604 0
-651 583 0
-604 -583 651 0
-652 604 0
-652 584 0
-604 -584 652 0
-605 564 0
-564 605 0
-653 605 0
-653 581 0
-605 -581 653 0
-654 605 0
-654 582 0
-605 -582 654 0
-655 605 0
-655 583 0
-605 -583 655 0
-656 605 0
-656 584 0
-605 -584 656 0
-606 565 0
-565 606 0
-657 606 0
-657 581 0
-606 -581 657 0
-658 606 0
-658 582 0
-606 -582 658 0
-659 606 0
-659 583 0
-606 -583 659 0
-660 606 0
-660 584 0
-606 -584 660 0
-607 566 0
-566 607 0
-661 607 0
-661 581 0
-607 -581 661 0
-662 607 0
-662 582 0
-607 -582 662 0
-663 607 0
-663 583 0
-607 -583 663 0
-664 607 0
-664 584 0
-607 -584 664 0
-608 567 0
-567 608 0
-665 608 0
-665 581 0
-608 -581 665 0
-666 608 0
-666 582 0
-608 -582 666 0
-667 608 0
-667 583 0
-608 -583 667 0
-668 608 0
-668 584 0
-608 -584 668 0
-609 568 0
-568 609 0
-669 609 0
-669 585 0
-609 -585 669 0
-670 609 0
-670 586 0
-609 -586 670 0
-671 609 0
-671 587 0
-609 -587 671 0
-672 609 0
-672 588 0
-609 -588 672 0
-610 568 569 0
-568 610 0
-569 610 0
-673 610 0
-673 585 0
-610 -585 673 0
-674 610 0
-674 586 0
-610 -586 674 0
-675 610 0
-675 587 0
-610 -587 675 0
-676 610 0
-676 588 0
-610 -588 676 0
-611 569 570 0
-569 611 0
-570 611 0
-677 611 0
-677 585 0
-611 -585 677 0
-678 611 0
-678 586 0
-611 -586 678 0
-679 611 0
-679 587 0
-611 -587 679 0
-680 611 0
-680 588 0
-611 -588 680 0
-612 570 571 0
-570 612 0
-571 612 0
-681 612 0
-681 585 0
-612 -585 681 0
-682 612 0
-682 586 0
-612 -586 682 0
-683 612 0
-683 587 0
-612 -587 683 0
-684 612 0
-684 588 0
-612 -588 684 0
-613 571 572 0
-571 613 0
-572 613 0
-685 613 0
-685 585 0
-613 -585 685 0
-686 613 0
-686 586 0
-613 -586 686 0
-687 613 0
-687 587 0
-613 -587 687 0
-688 613 0
-688 588 0
-613 -588 688 0
-614 572 0
-572 614 0
-689 614 0
-689 585 0
-614 -585 689 0
-690 614 0
-690 586 0
-614 -586 690 0
-691 614 0
-691 587 0
-614 -587 691 0
-692 614 0
-692 588 0
-614 -588 692 0
-615 573 0
-573 615 0
-693 615 0
-693 589 0
-615 -589 693 0
-694 615 0
-694 590 0
-615 -590 694 0
-695 615 0
-695 591 0
-615 -591 695 0
-696 615 0
-696 592 0
-615 -592 696 0
-616 573 574 0
-573 616 0
-574 616 0
-697 616 0
-697 589 0
-616 -589 697 0
-698 616 0
-698 590 0
-616 -590 698 0
-699 616 0
-699 591 0
-616 -591 699 0
-700 616 0
-700 592 0
-616 -592 700 0
-617 573 574 575 0
-573 617 0
-574 617 0
-575 617 0
-701 617 0
-701 589 0
-617 -589 701 0
-702 617 0
-702 590 0
-617 -590 702 0
-703 617 0
-703 591 0
-617 -591 703 0
-704 617 0
-704 592 0
-617 -592 704 0
-618 574 575 576 0
-574 618 0
-575 618 0
-576 618 0
-705 618 0
-705 589 0
-618 -589 705 0
-706 618 0
-706 590 0
-618 -590 706 0
-707 618 0
-707 591 0
-618 -591 707 0
-708 618 0
-708 592 0
-618 -592 708 0
-619 575 576 0
-575 619 0
-576 619 0
-709 619 0
-709 589 0
-619 -589 709 0
-710 619 0
-710 590 0
-619 -590 710 0
-711 619 0
-711 591 0
-619 -591 711 0
-712 619 0
-712 592 0
-619 -592 712 0
-620 576 0
-576 620 0
-713 620 0
-713 589 0
-620 -589 713 0
-714 620 0
-714 590 0
-620 -590 714 0
-715 620 0
-715 591 0
-620 -591 715 0
-716 620 0
-716 592 0
-620 -592 716 0
-717 621 645 669 693 0
-621 717 0
-645 717 0
-669 717 0
-693 717 0
-718 622 646 670 694 0
-622 718 0
-646 718 0
-670 718 0
-694 718 0
-719 623 647 671 695 0
-623 719 0
-647 719 0
-671 719 0
-695 719 0
-720 624 648 672 696 0
-624 720 0
-648 720 0
-672 720 0
-696 720 0
-721 625 649 673 697 0
-625 721 0
-649 721 0
-673 721 0
-697 721 0
-722 626 650 674 698 0
-626 722 0
-650 722 0
-674 722 0
-698 722 0
-723 627 651 675 699 0
-627 723 0
-651 723 0
-675 723 0
-699 723 0
-724 628 652 676 700 0
-628 724 0
-652 724 0
-676 724 0
-700 724 0
-725 629 653 677 701 0
-629 725 0
-653 725 0
-677 725 0
-701 725 0
-726 630 654 678 702 0
-630 726 0
-654 726 0
-678 726 0
-702 726 0
-727 631 655 679 703 0
-631 727 0
-655 727 0
-679 727 0
-703 727 0
-728 632 656 680 704 0
-632 728 0
-656 728 0
-680 728 0
-704 728 0
-729 633 657 681 705 0
-633 729 0
-657 729 0
-681 729 0
-705 729 0
-730 634 658 682 706 0
-634 730 0
-658 730 0
-682 730 0
-706 730 0
-731 635 659 683 707 0
-635 731 0
-659 731 0
-683 731 0
-707 731 0
-732 636 660 684 708 0
-636 732 0
-660 732 0
-684 732 0
-708 732 0
-733 637 661 685 709 0
-637 733 0
-661 733 0
-685 733 0
-709 733 0
-734 638 662 686 710 0
-638 734 0
-662 734 0
-686 734 0
-710 734 0
-735 639 663 687 711 0
-639 735 0
-663 735 0
-687 735 0
-711 735 0
-736 640 664 688 712 0
-640 736 0
-664 736 0
-688 736 0
-712 736 0
-737 641 665 689 713 0
-641 737 0
-665 737 0
-689 737 0
-713 737 0
-738 642 666 690 714 0
-642 738 0
-666 738 0
-690 738 0
-714 738 0
-739 643 667 691 715 0
-643 739 0
-667 739 0
-691 739 0
-715 739 0
-740 644 668 692 716 0
-644 740 0
-668 740 0
-692 740 0
-716 740 0
-621 -645 0
-621 -669 0
-621 -693 0
-645 -669 0
-645 -693 0
-669 -693 0
-622 -646 0
-622 -670 0
-622 -694 0
-646 -670 0
-646 -694 0
-670 -694 0
-623 -647 0
-623 -671 0
-623 -695 0
-647 -671 0
-647 -695 0
-671 -695 0
-624 -648 0
-624 -672 0
-624 -696 0
-648 -672 0
-648 -696 0
-672 -696 0
-625 -649 0
-625 -673 0
-625 -697 0
-649 -673 0
-649 -697 0
-673 -697 0
-626 -650 0
-626 -674 0
-626 -698 0
-650 -674 0
-650 -698 0
-674 -698 0
-627 -651 0
-627 -675 0
-627 -699 0
-651 -675 0
-651 -699 0
-675 -699 0
-628 -652 0
-628 -676 0
-628 -700 0
-652 -676 0
-652 -700 0
-676 -700 0
-629 -653 0
-629 -677 0
-629 -701 0
-653 -677 0
-653 -701 0
-677 -701 0
-630 -654 0
-630 -678 0
-630 -702 0
-654 -678 0
-654 -702 0
-678 -702 0
-631 -655 0
-631 -679 0
-631 -703 0
-655 -679 0
-655 -703 0
-679 -703 0
-632 -656 0
-632 -680 0
-632 -704 0
-656 -680 0
-656 -704 0
-680 -704 0
-633 -657 0
-633 -681 0
-633 -705 0
-657 -681 0
-657 -705 0
-681 -705 0
-634 -658 0
-634 -682 0
-634 -706 0
-658 -682 0
-658 -706 0
-682 -706 0
-635 -659 0
-635 -683 0
-635 -707 0
-659 -683 0
-659 -707 0
-683 -707 0
-636 -660 0
-636 -684 0
-636 -708 0
-660 -684 0
-660 -708 0
-684 -708 0
-637 -661 0
-637 -685 0
-637 -709 0
-661 -685 0
-661 -709 0
-685 -709 0
-638 -662 0
-638 -686 0
-638 -710 0
-662 -686 0
-662 -710 0
-686 -710 0
-639 -663 0
-639 -687 0
-639 -711 0
-663 -687 0
-663 -711 0
-687 -711 0
-640 -664 0
-640 -688 0
-640 -712 0
-664 -688 0
-664 -712 0
-688 -712 0
-641 -665 0
-641 -689 0
-641 -713 0
-665 -689 0
-665 -713 0
-689 -713 0
-642 -666 0
-642 -690 0
-642 -714 0
-666 -690 0
-666 -714 0
-690 -714 0
-643 -667 0
-643 -691 0
-643 -715 0
-667 -691 0
-667 -715 0
-691 -715 0
-644 -668 0
-644 -692 0
-644 -716 0
-668 -692 0
-668 -716 0
-692 -716 0
-556 -578 717 0
-556 -579 718 0
-556 -580 719 0
-557 -578 721 0
-557 -579 722 0
-557 -580 723 0
-558 -578 725 0
-558 -579 726 0
-558 -580 727 0
-559 -578 729 0
-559 -579 730 0
-559 -580 731 0
-560 -578 733 0
-560 -579 734 0
-560 -580 735 0
-561 -578 737 0
-561 -579 738 0
-561 -580 739 0
-562 -582 717 0
-562 -583 718 0
-562 -584 719 0
-563 -582 721 0
-563 -583 722 0
-563 -584 723 0
-564 -582 725 0
-564 -583 726 0
-564 -584 727 0
-565 -582 729 0
-565 -583 730 0
-565 -584 731 0
-566 -582 733 0
-566 -583 734 0
-566 -584 735 0
-567 -582 737 0
-567 -583 738 0
-567 -584 739 0
-568 -586 717 721 0
-568 -587 718 722 0
-568 -588 719 723 0
-569 -586 721 725 0
-569 -587 722 726 0
-569 -588 723 727 0
-570 -586 725 729 0
-570 -587 726 730 0
-570 -588 727 731 0
-571 -586 729 733 0
-571 -587 730 734 0
-571 -588 731 735 0
-572 -586 733 737 0
-572 -587 734 738 0
-572 -588 735 739 0
-573 -590 717 721 0
-573 -590 717 725 0
-573 -590 721 725 0
-573 -591 718 722 0
-573 -591 718 726 0
-573 -591 722 726 0
-573 -592 719 723 0
-573 -592 719 727 0
-573 -592 723 727 0
-574 -590 721 725 0
-574 -590 721 729 0
-574 -590 725 729 0
-574 -591 722 726 0
-574 -591 722 730 0
-574 -591 726 730 0
-574 -592 723 727 0
-574 -592 723 731 0
-574 -592 727 731 0
-575 -590 725 729 0
-575 -590 725 733 0
-575 -590 729 733 0
-575 -591 726 730 0
-575 -591 726 734 0
-575 -591 730 734 0
-575 -592 727 731 0
-575 -592 727 735 0
-575 -592 731 735 0
-576 -590 729 733 0
-576 -590 729 737 0
-576 -590 733 737 0
-576 -591 730 734 0
-576 -591 730 738 0
-576 -591 734 738 0
-576 -592 731 735 0
-576 -592 731 739 0
-576 -592 735 739 0
-556 -577 -593 -718 0
-556 -577 593 718 0
-556 -578 -593 -719 0
-556 -578 593 719 0
-556 -579 -593 -720 0
-556 -579 593 720 0
-556 -580 593 0
-557 -577 -593 -722 0
-557 -577 593 722 0
-557 -578 -593 -723 0
-557 -578 593 723 0
-557 -579 -593 -724 0
-557 -579 593 724 0
-557 -580 593 0
-558 -577 -593 -726 0
-558 -577 593 726 0
-558 -578 -593 -727 0
-558 -578 593 727 0
-558 -579 -593 -728 0
-558 -579 593 728 0
-558 -580 593 0
-559 -577 -593 -730 0
-559 -577 593 730 0
-559 -578 -593 -731 0
-559 -578 593 731 0
-559 -579 -593 -732 0
-559 -579 593 732 0
-559 -580 593 0
-560 -577 -593 -734 0
-560 -577 593 734 0
-560 -578 -593 -735 0
-560 -578 593 735 0
-560 -579 -593 -736 0
-560 -579 593 736 0
-560 -580 593 0
-561 -577 -593 -738 0
-561 -577 593 738 0
-561 -578 -593 -739 0
-561 -578 593 739 0
-561 -579 -593 -740 0
-561 -579 593 740 0
-561 -580 593 0
-562 -581 -594 -718 0
-562 -581 594 718 0
-562 -582 -594 -719 0
-562 -582 594 719 0
-562 -583 -594 -720 0
-562 -583 594 720 0
-562 -584 594 0
-563 -581 -594 -722 0
-563 -581 594 722 0
-563 -582 -594 -723 0
-563 -582 594 723 0
-563 -583 -594 -724 0
-563 -583 594 724 0
-563 -584 594 0
-564 -581 -594 -726 0
-564 -581 594 726 0
-564 -582 -594 -727 0
-564 -582 594 727 0
-564 -583 -594 -728 0
-564 -583 594 728 0
-564 -584 594 0
-565 -581 -594 -730 0
-565 -581 594 730 0
-565 -582 -594 -731 0
-565 -582 594 731 0
-565 -583 -594 -732 0
-565 -583 594 732 0
-565 -584 594 0
-566 -581 -594 -734 0
-566 -581 594 734 0
-566 -582 -594 -735 0
-566 -582 594 735 0
-566 -583 -594 -736 0
-566 -583 594 736 0
-566 -584 594 0
-567 -581 -594 -738 0
-567 -581 594 738 0
-567 -582 -594 -739 0
-567 -582 594 739 0
-567 -583 -594 -740 0
-567 -583 594 740 0
-567 -584 594 0
-568 -585 -595 -718 0
-568 -585 -595 -722 0
-568 -585 595 718 722 0
-568 -586 -595 -719 0
-568 -586 -595 -723 0
-568 -586 595 719 723 0
-568 -587 -595 -720 0
-568 -587 -595 -724 0
-568 -587 595 720 724 0
-568 -588 595 0
-569 -585 -595 -722 0
-569 -585 -595 -726 0
-569 -585 595 722 726 0
-569 -586 -595 -723 0
-569 -586 -595 -727 0
-569 -586 595 723 727 0
-569 -587 -595 -724 0
-569 -587 -595 -728 0
-569 -587 595 724 728 0
-569 -588 595 0
-570 -585 -595 -726 0
-570 -585 -595 -730 0
-570 -585 595 726 730 0
-570 -586 -595 -727 0
-570 -586 -595 -731 0
-570 -586 595 727 731 0
-570 -587 -595 -728 0
-570 -587 -595 -732 0
-570 -587 595 728 732 0
-570 -588 595 0
-571 -585 -595 -730 0
-571 -585 -595 -734 0
-571 -585 595 730 734 0
-571 -586 -595 -731 0
-571 -586 -595 -735 0
-571 -586 595 731 735 0
-571 -587 -595 -732 0
-571 -587 -595 -736 0
-571 -587 595 732 736 0
-571 -588 595 0
-572 -585 -595 -734 0
-572 -585 -595 -738 0
-572 -585 595 734 738 0
-572 -586 -595 -735 0
-572 -586 -595 -739 0
-572 -586 595 735 739 0
-572 -587 -595 -736 0
-572 -587 -595 -740 0
-572 -587 595 736 740 0
-572 -588 595 0
-573 -589 -596 -718 0
-573 -589 -596 -722 0
-573 -589 -596 -726 0
-573 -589 596 718 722 726 0
-573 -590 -596 -719 0
-573 -590 -596 -723 0
-573 -590 -596 -727 0
-573 -590 596 719 723 727 0
-573 -591 -596 -720 0
-573 -591 -596 -724 0
-573 -591 -596 -728 0
-573 -591 596 720 724 728 0
-573 -592 596 0
-574 -589 -596 -722 0
-574 -589 -596 -726 0
-574 -589 -596 -730 0
-574 -589 596 722 726 730 0
-574 -590 -596 -723 0
-574 -590 -596 -727 0
-574 -590 -596 -731 0
-574 -590 596 723 727 731 0
-574 -591 -596 -724 0
-574 -591 -596 -728 0
-574 -591 -596 -732 0
-574 -591 596 724 728 732 0
-574 -592 596 0
-575 -589 -596 -726 0
-575 -589 -596 -730 0
-575 -589 -596 -734 0
-575 -589 596 726 730 734 0
-575 -590 -596 -727 0
-575 -590 -596 -731 0
-575 -590 -596 -735 0
-575 -590 596 727 731 735 0
-575 -591 -596 -728 0
-575 -591 -596 -732 0
-575 -591 -596 -736 0
-575 -591 596 728 732 736 0
-575 -592 596 0
-576 -589 -596 -730 0
-576 -589 -596 -734 0
-576 -589 -596 -738 0
-576 -589 596 730 734 738 0
-576 -590 -596 -731 0
-576 -590 -596 -735 0
-576 -590 -596 -739 0
-576 -590 596 731 735 739 0
-576 -591 -596 -732 0
-576 -591 -596 -736 0
-576 -591 -596 -740 0
-576 -591 596 732 736 740 0
-576 -592 596 0
741 742 743 744 745 746 0
-741 -742 0
-741 -743 0
-741 -744 0
-741 -745 0
-741 -746 0
-742 -743 0
-742 -744 0
-742 -745 0
-742 -746 0
-743 -744 0
-743 -745 0
-743 -746 0
-744 -745 0
-744 -746 0
-745 -746 0
762 763 764 765 0
-762 -763 0
-762 -764 0
-762 -765 0
-763 -764 0
-763 -765 0
-764 -765 0
747 748 749 750 751 752 0
-747 -748 0
-747 -749 0
-747 -750 0
-747 -751 0
-747 -752 0
-748 -749 0
-748 -750 0
-748 -751 0
-748 -752 0
-749 -750 0
-749 -751 0
-749 -752 0
-750 -751 0
-750 -752 0
-751 -752 0
766 767 768 769 0
-766 -767 0
-766 -768 0
-766 -769 0
-767 -768 0
-767 -769 0
-768 -769 0
753 754 755 756 757 0
-753 -754 0
-753 -755 0
-753 -756 0
-753 -757 0
-754 -755 0
-754 -756 0
-754 -757 0
-755 -756 0
-755 -757 0
-756 -757 0
770 771 772 773 0
-770 -771 0
-770 -772 0
-770 -773 0
-771 -772 0
-771 -773 0
-772 -773 0
758 759 760 761 0
-758 -759 0
-758 -760 0
-758 -761 0
-759 -760 0
-759 -761 0
-760 -761 0
774 775 776 777 0
-774 -775 0
-774 -776 0
-774 -777 0
-775 -776 0
-775 -777 0
-776 -777 0
-782 741 0
-741 782 0
-806 782 0
-806 762 0
-782 -762 806 0
-807 782 0
-807 763 0
-782 -763 807 0
-808 782 0
-808 764 0
-782 -764 808 0
-809 782 0
-809 765 0
-782 -765 809 0
-783 742 0
-742 783 0
-810 783 0
-810 762 0
-783 -762 810 0
-811 783 0
-811 763 0
-783 -763 811 0
-812 783 0
-812 764 0
-783 -764 812 0
-813 783 0
-813 765 0
-783 -765 813 0
-784 743 0
-743 784 0
-814 784 0
-814 762 0
-784 -762 814 0
-815 784 0
-815 763 0
-784 -763 815 0
-816 784 0
-816 764 0
-784 -764 816 0
-817 784 0
-817 765 0
-784 -765 817 0
-785 744 0
-744 785 0
-818 785 0
-818 762 0
-785 -762 818 0
-819 785 0
-819 763 0
-785 -763 819 0
-820 785 0
-820 764 0
-785 -764 820 0
-821 785 0
-821 765 0
-785 -765 821 0
-786 745 0
-745 786 0
-822 786 0
-822 762 0
-786 -762 822 0
-823 786 0
-823 763 0
-786 -763 823 0
-824 786 0
-824 764 0
-786 -764 824 0
-825 786 0
-825 765 0
-786 -765 825 0
-787 746 0
-746 787 0
-826 787 0
-826 762 0
-787 -762 826 0
-827 787 0
-827 763 0
-787 -763 827 0
-828 787 0
-828 764 0
-787 -764 828 0
-829 787 0
-829 765 0
-787 -765 829 0
-788 747 0
-747 788 0
-830 788 0
-830 766 0
-788 -766 830 0
-831 788 0
-831 767 0
-788 -767 831 0
-832 788 0
-832 768 0
-788 -768 832 0
-833 788 0
-833 769 0
-788 -769 833 0
-789 748 0
-748 789 0
-834 789 0
-834 766 0
-789 -766 834 0
-835 789 0
-835 767 0
-789 -767 835 0
-836 789 0
-836 768 0
-789 -768 836 0
-837 789 0
-837 769 0
-789 -769 837 0
-790 749 0
-749 790 0
-838 790 0
-838 766 0
-790 -766 838 0
-839 790 0
-839 767 0
-790 -767 839 0
-840 790 0
-840 768 0
-790 -768 840 0
-841 790 0
-841 769 0
-790 -769 841 0
-791 750 0
-750 791 0
-842 791 0
-842 766 0
-791 -766 842 0
-843 791 0
-843 767 0
-791 -767 843 0
-844 791 0
-844 768 0
-791 -768 844 0
-845 791 0
-845 769 0
-791 -769 845 0
-792 751 0
-751 792 0
-846 792 0
-846 766 0
-792 -766 846 0
-847 792 0
-847 767 0
-792 -767 847 0
-848 792 0
-848 768 0
-792 -768 848 0
-849 792 0
-849 769 0
-792 -769 849 0
-793 752 0
-752 793 0
-850 793 0
-850 766 0
-793 -766 850 0
-851 793 0
-851 767 0
-793 -767 851 0
-852 793 0
-852 768 0
-793 -768 852 0
-853 793 0
-853 769 0
-793 -769 853 0
-794 753 0
-753 794 0
-854 794 0
-854 770 0
-794 -770 854 0
-855 794 0
-855 771 0
-794 -771 855 0
-856 794 0
-856 772 0
-794 -772 856 0
-857 794 0
-857 773 0
-794 -773 857 0
-795 753 754 0
-753 795 0
-754 795 0
-858 795 0
-858 770 0
-795 -770 858 0
-859 795 0
-859 771 0
-795 -771 859 0
-860 795 0
-860 772 0
-795 -772 860 0
-861 795 0
-861 773 0
-795 -773 861 0
-796 754 755 0
-754 796 0
-755 796 0
-862 796 0
-862 770 0
-796 -770 862 0
-863 796 0
-863 771 0
-796 -771 863 0
-864 796 0
-864 772 0
-796 -772 864 0
-865 796 0
-865 773 0
-796 -773 865 0
-797 755 756 0
-755 797 0
-756 797 0
-866 797 0
-866 770 0
-797 -770 866 0
-867 797 0
-867 771 0
-797 -771 867 0
-868 797 0
-868 772 0
-797 -772 868 0
-869 797 0
-869 773 0
-797 -773 869 0
-798 756 757 0
-756 798 0
-757 798 0
-870 798 0
-870 770 0
-798 -770 870 0
-871 798 0
-871 771 0
-798 -771 871 0
-872 798 0
-872 772 0
-798 -772 872 0
-873 798 0
-873 773 0
-798 -773 873 0
-799 757 0
-757 799 0
-874 799 0
-874 770 0
-799 -770 874 0
-875 799 0
-875 771 0
-799 -771 875 0
-876 799 0
-876 772 0
-799 -772 876 0
-877 799 0
-877 773 0
-799 -773 877 0
-800 758 0
-758 800 0
-878 800 0
-878 774 0
-800 -774 878 0
-879 800 0
-879 775 0
-800 -775 879 0
-880 800 0
-880 776 0
-800 -776 880 0
-881 800 0
-881 777 0
-800 -777 881 0
-801 758 759 0
-758 801 0
-759 801 0
-882 801 0
-882 774 0
-801 -774 882 0
-883 801 0
-883 775 0
-801 -775 883 0
-884 801 0
-884 776 0
-801 -776 884 0
-885 801 0
-885 777 0
-801 -777 885 0
-802 758 759 760 0
-758 802 0
-759 802 0
-760 802 0
-886 802 0
-886 774 0
-802 -774 886 0
-887 802 0
-887 775 0
-802 -775 887 0
-888 802 0
-888 776 0
-802 -776 888 0
-889 802 0
-889 777 0
-802 -777 889 0
-803 759 760 761 0
-759 803 0
-760 803 0
-761 803 0
-890 803 0
-890 774 0
-803 -774 890 0
-891 803 0
-891 775 0
-803 -775 891 0
-892 803 0
-892 776 0
-803 -776 892 0
-893 803 0
-893 777 0
-803 -777 893 0
-804 760 761 0
-760 804 0
-761 804 0
-894 804 0
-894 774 0
-804 -774 894 0
-895 804 0
-895 775 0
-804 -775 895 0
-896 804 0
-896 776 0
-804 -776 896 0
-897 804 0
-897 777 0
-804 -777 897 0
-805 761 0
-761 805 0
-898 805 0
-898 774 0
-805 -774 898 0
-899 805 0
-899 775 0
-805 -775 899 0
-900 805 0
-900 776 0
-805 -776 900 0
-901 805 0
-901 777 0
-805 -777 901 0
-902 806 830 854 878 0
-806 902 0
-830 902 0
-854 902 0
-878 902 0
-903 807 831 855 879 0
-807 903 0
-831 903 0
-855 903 0
-879 903 0
-904 808 832 856 880 0
-808 904 0
-832 904 0
-856 904 0
-880 904 0
-905 809 833 857 881 0
-809 905 0
-833 905 0
-857 905 0
-881 905 0
-906 810 834 858 882 0
-810 906 0
-834 906 0
-858 906 0
-882 906 0
-907 811 835 859 883 0
-811 907 0
-835 907 0
-859 907 0
-883 907 0
-908 812 836 860 884 0
-812 908 0
-836 908 0
-860 908 0
-884 908 0
-909 813 837 861 885 0
-813 909 0
-837 909 0
-861 909 0
-885 909 0
-910 814 838 862 886 0
-814 910 0
-838 910 0
-862 910 0
-886 910 0
-911 815 839 863 887 0
-815 911 0
-839 911 0
-863 911 0
-887 911 0
-912 816 840 864 888 0
-816 912 0
-840 912 0
-864 912 0
-888 912 0
-913 817 841 865 889 0
-817 913 0
-841 913 0
-865 913 0
-889 913 0
-914 818 842 866 890 0
-818 914 0
-842 914 0
-866 914 0
-890 914 0
-915 819 843 867 891 0
-819 915 0
-843 915 0
-867 915 0
-891 915 0
-916 820 844 868 892 0
-820 916 0
-844 916 0
-868 916 0
-892 916 0
-917 821 845 869 893 0
-821 917 0
-845 917 0
-869 917 0
-893 917 0
-918 822 846 870 894 0
-822 918 0
-846 918 0
-870 918 0
-894 918 0
-919 823 847 871 895 0
-823 919 0
-847 919 0
-871 919 0
-895 919 0
-920 824 848 872 896 0
-824 920 0
-848 920 0
-872 920 0
-896 920 0
-921 825 849 873 897 0
-825 921 0
-849 921 0
-873 921 0
-897 921 0
-922 826 850 874 898 0
-826 922 0
-850 922 0
-874 922 0
-898 922 0
-923 827 851 875 899 0
-827 923 0
-851 923 0
-875 923 0
-899 923 0
-924 828 852 876 900 0
-828 924 0
-852 924 0
-876 924 0
-900 924 0
-925 829 853 877 901 0
-829 925 0
-853 925 0
-877 925 0
-901 925 0
-806 -830 0
-806 -854 0
-806 -878 0
-830 -854 0
-830 -878 0
-854 -878 0
-807 -831 0
-807 -855 0
-807 -879 0
-831 -855 0
-831 -879 0
-855 -879 0
-808 -832 0
-808 -856 0
-808 -880 0
-832 -856 0
-832 -880 0
-856 -880 0
-809 -833 0
-809 -857 0
-809 -881 0
-833 -857 0
-833 -881 0
-857 -881 0
-810 -834 0
-810 -858 0
-810 -882 0
-834 -858 0
-834 -882 0
-858 -882 0
-811 -835 0
-811 -859 0
-811 -883 0
-835 -859 0
-835 -883 0
-859 -883 0
-812 -836 0
-812 -860 0
-812 -884 0
-836 -860 0
-836 -884 0
-860 -884 0
-813 -837 0
-813 -861 0
-813 -885 0
-837 -861 0
-837 -885 0
-861 -885 0
-814 -838 0
-814 -862 0
-814 -886 0
-838 -862 0
-838 -886 0
-862 -886 0
-815 -839 0
-815 -863 0
-815 -887 0
-839 -863 0
-839 -887 0
-863 -887 0
-816 -840 0
-816 -864 0
-816 -888 0
-840 -864 0
-840 -888 0
-864 -888 0
-817 -841 0
-817 -865 0
-817 -889 0
-841 -865 0
-841 -889 0
-865 -889 0
-818 -842 0
-818 -866 0
-818 -890 0
-842 -866 0
-842 -890 0
-866 -890 0
-819 -843 0
-819 -867 0
-819 -891 0
-843 -867 0
-843 -891 0
-867 -891 0
-820 -844 0
-820 -868 0
-820 -892 0
-844 -868 0
-844 -892 0
-868 -892 0
-821 -845 0
-821 -869 0
-821 -893 0
-845 -869 0
-845 -893 0
-869 -893 0
-822 -846 0
-822 -870 0
-822 -894 0
-846 -870 0
-846 -894 0
-870 -894 0
-823 -847 0
-823 -871 0
-823 -895 0
-847 -871 0
-847 -895 0
-871 -895 0
-824 -848 0
-824 -872 0
-824 -896 0
-848 -872 0
-848 -896 0
-872 -896 0
-825 -849 0
-825 -873 0
-825 -897 0
-849 -873 0
-849 -897 0
-873 -897 0
-826 -850 0
-826 -874 0
-826 -898 0
-850 -874 0
-850 -898 0
-874 -898 0
-827 -851 0
-827 -875 0
-827 -899 0
-851 -875 0
-851 -899 0
-875 -899 0
-828 -852 0
-828 -876 0
-828 -900 0
-852 -876 0
-852 -900 0
-876 -900 0
-829 -853 0
-829 -877 0
-829 -901 0
-853 -877 0
-853 -901 0
-877 -901 0
-741 -763 902 0
-741 -764 903 0
-741 -765 904 0
-742 -763 906 0
-742 -764 907 0
-742 -765 908 0
-743 -763 910 0
-743 -764 911 0
-743 -765 912 0
-744 -763 914 0
-744 -764 915 0
-744 -765 916 0
-745 -763 918 0
-745 -764 919 0
-745 -765 920 0
-746 -763 922 0
-746 -764 923 0
-746 -765 924 0
-747 -767 902 0
-747 -768 903 0
-747 -769 904 0
-748 -767 906 0
-748 -768 907 0
-748 -769 908 0
-749 -767 910 0
-749 -768 911 0
-749 -769 912 0
-750 -767 914 0
-750 -768 915 0
-750 -769 916 0
-751 -767 918 0
-751 -768 919 0
-751 -769 920 0
-752 -767 922 0
-752 -768 923 0
-752 -769 924 0
-753 -771 902 906 0
-753 -772 903 907 0
-753 -773 904 908 0
-754 -771 906 910 0
-754 -772 907 911 0
-754 -773 908 912 0
-755 -771 910 914 0
-755 -772 911 915 0
-755 -773 912 916 0
-756 -771 914 918 0
-756 -772 915 919 0
-756 -773 916 920 0
-757 -771 918 922 0
-757 -772 919 923 0
-757 -773 920 924 0
-758 -775 902 906 0
-758 -775 902 910 0
-758 -775 906 910 0
-758 -776 903 907 0
-758 -776 903 911 0
-758 -776 907 911 0
-758 -777 904 908 0
-758 -777 904 912 0
-758 -777 908 912 0
-759 -775 906 910 0
-759 -775 906 914 0
-759 -775 910 914 0
-759 -776 907 911 0
-759 -776 907 915 0
-759 -776 911 915 0
-759 -777 908 912 0
-759 -777 908 916 0
-759 -777 912 916 0
-760 -775 910 914 0
-760 -775 910 918 0
-760 -775 914 918 0
-760 -776 911 915 0
-760 -776 911 919 0
-760 -776 915 919 0
-760 -777 912 916 0
-760 -777 912 920 0
-760 -777 916 920 0
-761 -775 914 918 0
-761 -775 914 922 0
-761 -775 918 922 0
-761 -776 915 919 0
-761 -776 915 923 0
-761 -776 919 923 0
-761 -777 916 920 0
-761 -777 916 924 0
-761 -777 920 924 0
-741 -762 -778 -903 0
-741 -762 778 903 0
-741 -763 -778 -904 0
-741 -763 778 904 0
-741 -764 -778 -905 0
-741 -764 778 905 0
-741 -765 778 0
-742 -762 -778 -907 0
-742 -762 778 907 0
-742 -763 -778 -908 0
-742 -763 778 908 0
-742 -764 -778 -909 0
-742 -764 778 909 0
-742 -765 778 0
-743 -762 -778 -911 0
-743 -762 778 911 0
-743 -763 -778 -912 0
-743 -763 778 912 0
-743 -764 -778 -913 0
-743 -764 778 913 0
-743 -765 778 0
-744 -762 -778 -915 0
-744 -762 778 915 0
-744 -763 -778 -916 0
-744 -763 778 916 0
-744 -764 -778 -917 0
-744 -764 778 917 0
-744 -765 778 0
-745 -762 -778 -919 0
-745 -762 778 919 0
-745 -763 -778 -920 0
-745 -763 778 920 0
-745 -764 -778 -921 0
-745 -764 778 921 0
-745 -765 778 0
-746 -762 -778 -923 0
-746 -762 778 923 0
-746 -763 -778 -924 0
-746 -763 778 924 0
-746 -764 -778 -925 0
-746 -764 778 925 0
-746 -765 778 0
-747 -766 -779 -903 0
-747 -766 779 903 0
-747 -767 -779 -904 0
-747 -767 779 904 0
-747 -768 -779 -905 0
-747 -768 779 905 0
-747 -769 779 0
-748 -766 -779 -907 0
-748 -766 779 907 0
-748 -767 -779 -908 0
-748 -767 779 908 0
-748 -768 -779 -909 0
-748 -768 779 909 0
-748 -769 779 0
-749 -766 -779 -911 0
-749 -766 779 911 0
-749 -767 -779 -912 0
-749 -767 779 912 0
-749 -768 -779 -913 0
-749 -768 779 913 0
-749 -769 779 0
-750 -766 -779 -915 0
-750 -766 779 915 0
-750 -767 -779 -916 0
-750 -767 779 916 0
-750 -768 -779 -917 0
-750 -768 779 917 0
-750 -769 779 0
-751 -766 -779 -919 0
-751 -766 779 919 0
-751 -767 -779 -920 0
-751 -767 779 920 0
-751 -768 -779 -921 0
-751 -768 779 921 0
-751 -769 779 0
-752 -766 -779 -923 0
-752 -766 779 923 0
-752 -767 -779 -924 0
-752 -767 779 924 0
-752 -768 -779 -925 0
-752 -768 779 925 0
-752 -769 779 0
-753 -770 -780 -903 0
-753 -770 -780 -907 0
-753 -770 780 903 907 0
-753 -771 -780 -904 0
-753 -771 -780 -908 0
-753 -771 780 904 908 0
-753 -772 -780 -905 0
-753 -772 -780 -909 0
-753 -772 780 905 909 0
-753 -773 780 0
-754 -770 -780 -907 0
-754 -770 -780 -911 0
-754 -770 780 907 911 0
-754 -771 -780 -908 0
-754 -771 -780 -912 0
-754 -771 780 908 912 0
-754 -772 -780 -909 0
-754 -772 -780 -913 0
-754 -772 780 909 913 0
-754 -773 780 0
-755 -770 -780 -911 0
-755 -770 -780 -915 0
-755 -770 780 911 915 0
-755 -771 -780 -912 0
-755 -771 -780 -916 0
-755 -771 780 912 916 0
-755 -772 -780 -913 0
-755 -772 -780 -917 0
-755 -772 780 913 917 0
-755 -773 780 0
-756 -770 -780 -915 0
-756 -770 -780 -919 0
-756 -770 780 915 919 0
-756 -771 -780 -916 0
-756 -771 -780 -920 0
-756 -771 780 916 920 0
-756 -772 -780 -917 0
-756 -772 -780 -921 0
-756 -772 780 917 921 0
-756 -773 780 0
-757 -770 -780 -919 0
-757 -770 -780 -923 0
-757 -770 780 919 923 0
-757 -771 -780 -920 0
-757 -771 -780 -924 0
-757 -771 780 920 924 0
-757 -772 -780 -921 0
-757 -772 -780 -925 0
-757 -772 780 921 925 0
-757 -773 780 0
-758 -774 -781 -903 0
-758 -774 -781 -907 0
-758 -774 -781 -911 0
-758 -774 781 903 907 911 0
-758 -775 -781 -904 0
-758 -775 -781 -908 0
-758 -775 -781 -912 0
-758 -775 781 904 908 912 0
-758 -776 -781 -905 0
-758 -776 -781 -909 0
-758 -776 -781 -913 0
-758 -776 781 905 909 913 0
-758 -777 781 0
-759 -774 -781 -907 0
-759 -774 -781 -911 0
-759 -774 -781 -915 0
-759 -774 781 907 911 915 0
-759 -775 -781 -908 0
-759 -775 -781 -912 0
-759 -775 -781 -916 0
-759 -775 781 908 912 916 0
-759 -776 -781 -909 0
-759 -776 -781 -913 0
-759 -776 -781 -917 0
-759 -776 781 909 913 917 0
-759 -777 781 0
-760 -774 -781 -911 0
-760 -774 -781 -915 0
-760 -774 -781 -919 0
-760 -774 781 911 915 919 0
-760 -775 -781 -912 0
-760 -775 -781 -916 0
-760 -775 -781 -920 0
-760 -775 781 912 916 920 0
-760 -776 -781 -913 0
-760 -776 -781 -917 0
-760 -776 -781 -921 0
-760 -776 781 913 917 921 0
-760 -777 781 0
-761 -774 -781 -915 0
-761 -774 -781 -919 0
-761 -774 -781 -923 0
-761 -774 781 915 919 923 0
-761 -775 -781 -916 0
-761 -775 -781 -920 0
-761 -775 -781 -924 0
-761 -775 781 916 920 924 0
-761 -776 -781 -917 0
-761 -776 -781 -921 0
-761 -776 -781 -925 0
-761 -776 781 917 921 925 0
-761 -777 781 0
926 927 928 929 930 931 0
-926 -927 0
-926 -928 0
-926 -929 0
-926 -930 0
-926 -931 0
-927 -928 0
-927 -929 0
-927 -930 0
-927 -931 0
-928 -929 0
-928 -930 0
-928 -931 0
-929 -930 0
-929 -931 0
-930 -931 0
947 948 949 950 0
-947 -948 0
-947 -949 0
-947 -950 0
-948 -949 0
-948 -950 0
-949 -950 0
932 933 934 935 936 937 0
-932 -933 0
-932 -934 0
-932 -935 0
-932 -936 0
-932 -937 0
-933 -934 0
-933 -935 0
-933 -936 0
-933 -937 0
-934 -935 0
-934 -936 0
-934 -937 0
-935 -936 0
-935 -937 0
-936 -937 0
951 952 953 954 0
-951 -952 0
-951 -953 0
-951 -954 0
-952 -953 0
-952 -954 0
-953 -954 0
938 939 940 941 942 0
-938 -939 0
-938 -940 0
-938 -941 0
-938 -942 0
-939 -940 0
-939 -941 0
-939 -942 0
-940 -941 0
-940 -942 0
-941 -942 0
955 956 957 958 0
-955 -956 0
-955 -957 0
-955 -958 0
-956 -957 0
-956 -958 0
-957 -958 0
943 944 945 946 0
-943 -944 0
-943 -945 0
-943 -946 0
-944 -945 0
-944 -946 0
-945 -946 0
959 960 961 962 0
-959 -960 0
-959 -961 0
-959 -962 0
-960 -961 0
-960 -962 0
-961 -962 0
-967 926 0
-926 967 0
-991 967 0
-991 947 0
-967 -947 991 0
-992 967 0
-992 948 0
-967 -948 992 0
-993 967 0
-993 949 0
-967 -949 993 0
-994 967 0
-994 950 0
-967 -950 994 0
-968 927 0
-927 968 0
-995 968 0
-995 947 0
-968 -947 995 0
-996 968 0
-996 948 0
-968 -948 996 0
-997 968 0
-997 949 0
-968 -949 997 0
-998 968 0
-998 950 0
-968 -950 998 0
-969 928 0
-928 969 0
-999 969 0
-999 947 0
-969 -947 999 0
-1000 969 0
-1000 948 0
-969 -948 1000 0
-1001 969 0
-1001 949 0
-969 -949 1001 0
-1002 969 0
-1002 950 0
-969 -950 1002 0
-970 929 0
-929 970 0
-1003 970 0
-1003 947 0
-970 -947 1003 0
-1004 970 0
-1004 948 0
-970 -948 1004 0
-1005 970 0
-1005 949 0
-970 -949 1005 0
-1006 970 0
-1006 950 0
-970 -950 1006 0
-971 930 0
-930 971 0
-1007 971 0
-1007 947 0
-971 -947 1007 0
-1008 971 0
-1008 948 0
-971 -948 1008 0
-1009 971 0
-1009 949 0
-971 -949 1009 0
-1010 971 0
-1010 950 0
-971 -950 1010 0
-972 931 0
-931 972 0
-1011 972 0
-1011 947 0
-972 -947 1011 0
-1012 972 0
-1012 948 0
-972 -948 1012 0
-1013 972 0
-1013 949 0
-972 -949 1013 0
-1014 972 0
-1014 950 0
-972 -950 1014 0
-973 932 0
-932 973 0
-1015 973 0
-1015 951 0
-973 -951 1015 0
-1016 973 0
-1016 952 0
-973 -952 1016 0
-1017 973 0
-1017 953 0
-973 -953 1017 0
-1018 973 0
-1018 954 0
-973 -954 1018 0
-974 933 0
-933 974 0
-1019 974 0
-1019 951 0
-974 -951 1019 0
-1020 974 0
-1020 952 0
-974 -952 1020 0
-1021 974 0
-1021 953 0
-974 -953 1021 0
-1022 974 0
-1022 954 0
-974 -954 1022 0
-975 934 0
-934 975 0
-1023 975 0
-1023 951 0
-975 -951 1023 0
-1024 975 0
-1024 952 0
-975 -952 1024 0
-1025 975 0
-1025 953 0
-975 -953 1025 0
-1026 975 0
-1026 954 0
-975 -954 1026 0
-976 935 0
-935 976 0
-1027 976 0
-1027 951 0
-976 -951 1027 0
-1028 976 0
-1028 952 0
-976 -952 1028 0
-1029 976 0
-1029 953 0
-976 -953 1029 0
-1030 976 0
-1030 954 0
-976 -954 1030 0
-977 936 0
-936 977 0
-1031 977 0
-1031 951 0
-977 -951 1031 0
-1032 977 0
-1032 952 0
-977 -952 1032 0
-1033 977 0
-1033 953 0
-977 -953 1033 0
-1034 977 0
-1034 954 0
-977 -954 1034 0
-978 937 0
-937 978 0
-1035 978 0
-1035 951 0
-978 -951 1035 0
-1036 978 0
-1036 952 0
-978 -952 1036 0
-1037 978 0
-1037 953 0
-978 -953 1037 0
-1038 978 0
-1038 954 0
-978 -954 1038 0
-979 938 0
-938 979 0
-1039 979 0
-1039 955 0
-979 -955 1039 0
-1040 979 0
-1040 956 0
-979 -956 1040 0
-1041 979 0
-1041 957 0
-979 -957 1041 0
-1042 979 0
-1042 958 0
-979 -958 1042 0
-980 938 939 0
-938 980 0
-939 980 0
-1043 980 0
-1043 955 0
-980 -955 1043 0
-1044 980 0
-1044 956 0
-980 -956 1044 0
-1045 980 0
-1045 957 0
-980 -957 1045 0
-1046 980 0
-1046 958 0
-980 -958 1046 0
-981 939 940 0
-939 981 0
-940 981 0
-1047 981 0
-1047 955 0
-981 -955 1047 0
-1048 981 0
-1048 956 0
-981 -956 1048 0
-1049 981 0
-1049 957 0
-981 -957 1049 0
-1050 981 0
-1050 958 0
-981 -958 1050 0
-982 940 941 0
-940 982 0
-941 982 0
-1051 982 0
-1051 955 0
-982 -955 1051 0
-1052 982 0
-1052 956 0
-982 -956 1052 0
-1053 982 0
-1053 957 0
-982 -957 1053 0
-1054 982 0
-1054 958 0
-982 -958 1054 0
-983 941 942 0
-941 983 0
-942 983 0
-1055 983 0
-1055 955 0
-983 -955 1055 0
-1056 983 0
-1056 956 0
-983 -956 1056 0
-1057 983 0
-1057 957 0
-983 -957 1057 0
-1058 983 0
-1058 958 0
-983 -958 1058 0
-984 942 0
-942 984 0
-1059 984 0
-1059 955 0
-984 -955 1059 0
-1060 984 0
-1060 956 0
-984 -956 1060 0
-1061 984 0
-1061 957 0
-984 -957 1061 0
-1062 984 0
-1062 958 0
-984 -958 1062 0
-985 943 0
-943 985 0
-1063 985 0
-1063 959 0
-985 -959 1063 0
-1064 985 0
-1064 960 0
-985 -960 1064 0
-1065 985 0
-1065 961 0
-985 -961 1065 0
-1066 985 0
-1066 962 0
-985 -962 1066 0
-986 943 944 0
-943 986 0
-944 986 0
-1067 986 0
-1067 959 0
-986 -959 1067 0
-1068 986 0
-1068 960 0
-986 -960 1068 0
-1069 986 0
-1069 961 0
-986 -961 1069 0
-1070 986 0
-1070 962 0
-986 -962 1070 0
-987 943 944 945 0
-943 987 0
-944 987 0
-945 987 0
-1071 987 0
-1071 959 0
-987 -959 1071 0
-1072 987 0
-1072 960 0
-987 -960 1072 0
-1073 987 0
-1073 961 0
-987 -961 1073 0
-1074 987 0
-1074 962 0
-987 -962 1074 0
-988 944 945 946 0
-944 988 0
-945 988 0
-946 988 0
-1075 988 0
-1075 959 0
-988 -959 1075 0
-1076 988 0
-1076 960 0
-988 -960 1076 0
-1077 988 0
-1077 961 0
-988 -961 1077 0
-1078 988 0
-1078 962 0
-988 -962 1078 0
-989 945 946 0
-945 989 0
-946 989 0
-1079 989 0
-1079 959 0
-989 -959 1079 0
-1080 989 0
-1080 960 0
-989 -960 1080 0
-1081 989 0
-1081 961 0
-989 -961 1081 0
-1082 989 0
-1082 962 0
-989 -962 1082 0
-990 946 0
-946 990 0
-1083 990 0
-1083 959 0
-990 -959 1083 0
-1084 990 0
-1084 960 0
-990 -960 1084 0
-1085 990 0
-1085 961 0
-990 -961 1085 0
-1086 990 0
-1086 962 0
-990 -962 1086 0
-1087 991 1015 1039 1063 0
-991 1087 0
-1015 1087 0
-1039 1087 0
-1063 1087 0
-1088 992 1016 1040 1064 0
-992 1088 0
-1016 1088 0
-1040 1088 0
-1064 1088 0
-1089 993 1017 1041 1065 0
-993 1089 0
-1017 1089 0
-1041 1089 0
-1065 1089 0
-1090 994 1018 1042 1066 0
-994 1090 0
-1018 1090 0
-1042 1090 0
-1066 1090 0
-1091 995 1019 1043 1067 0
-995 1091 0
-1019 1091 0
-1043 1091 0
-1067 1091 0
-1092 996 1020 1044 1068 0
-996 1092 0
-1020 1092 0
-1044 1092 0
-1068 1092 0
-1093 997 1021 1045 1069 0
-997 1093 0
-1021 1093 0
-1045 1093 0
-1069 1093 0
-1094 998 1022 1046 1070 0
-998 1094 0
-1022 1094 0
-1046 1094 0
-1070 1094 0
-1095 999 1023 1047 1071 0
-999 1095 0
-1023 1095 0
-1047 1095 0
-1071 1095 0
-1096 1000 1024 1048 1072 0
-1000 1096 0
-1024 1096 0
-1048 1096 0
-1072 1096 0
-1097 1001 1025 1049 1073 0
-1001 1097 0
-1025 1097 0
-1049 1097 0
-1073 1097 0
-1098 1002 1026 1050 1074 0
-1002 1098 0
-1026 1098 0
-1050 1098 0
-1074 1098 0
-1099 1003 1027 1051 1075 0
-1003 1099 0
-1027 1099 0
-1051 1099 0
-1075 1099 0
-1100 1004 1028 1052 1076 0
-1004 1100 0
-1028 1100 0
-1052 1100 0
-1076 1100 0
-1101 1005 1029 1053 1077 0
-1005 1101 0
-1029 1101 0
-1053 1101 0
-1077 1101 0
-1102 1006 1030 1054 1078 0
-1006 1102 0
-1030 1102 0
-1054 1102 0
-1078 1102 0
-1103 1007 1031 1055 1079 0
-1007 1103 0
-1031 1103 0
-1055 1103 0
-1079 1103 0
-1104 1008 1032 1056 1080 0
-1008 1104 0
-1032 1104 0
-1056 1104 0
-1080 1104 0
-1105 1009 1033 1057 1081 0
-1009 1105 0
-1033 1105 0
-1057 1105 0
-1081 1105 0
-1106 1010 1034 1058 1082 0
-1010 1106 0
-1034 1106 0
-1058 1106 0
-1082 1106 0
-1107 1011 1035 1059 1083 0
-1011 1107 0
-1035 1107 0
-1059 1107 0
-1083 1107 0
-1108 1012 1036 1060 1084 0
-1012 1108 0
-1036 1108 0
-1060 1108 0
-1084 1108 0
-1109 1013 1037 1061 1085 0
-1013 1109 0
-1037 1109 0
-1061 1109 0
-1085 1109 0
-1110 1014 1038 1062 1086 0
-1014 1110 0
-1038 1110 0
-1062 1110 0
-1086 1110 0
-991 -1015 0
-991 -1039 0
-991 -1063 0
-1015 -1039 0
-1015 -1063 0
-1039 -1063 0
-992 -1016 0
-992 -1040 0
-992 -1064 0
-1016 -1040 0
-1016 -1064 0
-1040 -1064 0
-993 -1017 0
-993 -1041 0
-993 -1065 0
-1017 -1041 0
-1017 -1065 0
-1041 -1065 0
-994 -1018 0
-994 -1042 0
-994 -1066 0
-1018 -1042 0
-1018 -1066 0
-1042 -1066 0
-995 -1019 0
-995 -1043 0
-995 -1067 0
-1019 -1043 0
-1019 -1067 0
-1043 -1067 0
-996 -1020 0
-996 -1044 0
-996 -1068 0
-1020 -1044 0
-1020 -1068 0
-1044 -1068 0
-997 -1021 0
-997 -1045 0
-997 -1069 0
-1021 -1045 0
-1021 -1069 0
-1045 -1069 0
-998 -1022 0
-998 -1046 0
-998 -1070 0
-1022 -1046 0
-1022 -1070 0
-1046 -1070 0
-999 -1023 0
-999 -1047 0
-999 -1071 0
-1023 -1047 0
-1023 -1071 0
-1047 -1071 0
-1000 -1024 0
-1000 -1048 0
-1000 -1072 0
-1024 -1048 0
-1024 -1072 0
-1048 -1072 0
-1001 -1025 0
-1001 -1049 0
-1001 -1073 0
-1025 -1049 0
-1025 -1073 0
-1049 -1073 0
-1002 -1026 0
-1002 -1050 0
-1002 -1074 0
-1026 -1050 0
-1026 -1074 0
-1050 -1074 0
-1003 -1027 0
-1003 -1051 0
-1003 -1075 0
-1027 -1051 0
-1027 -1075 0
-1051 -1075 0
-1004 -1028 0
-1004 -1052 0
-1004 -1076 0
-1028 -1052 0
-1028 -1076 0
-1052 -1076 0
-1005 -1029 0
-1005 -1053 0
-1005 -1077 0
-1029 -1053 0
-1029 -1077 0
-1053 -1077 0
-1006 -1030 0
-1006 -1054 0
-1006 -1078 0
-1030 -1054 0
-1030 -1078 0
-1054 -1078 0
-1007 -1031 0
-1007 -1055 0
-1007 -1079 0
-1031 -1055 0
-1031 -1079 0
-1055 -1079 0
-1008 -1032 0
-1008 -1056 0
-1008 -1080 0
-1032 -1056 0
-1032 -1080 0
-1056 -1080 0
-1009 -1033 0
-1009 -1057 0
-1009 -1081 0
-1033 -1057 0
-1033 -1081 0
-1057 -1081 0
-1010 -1034 0
-1010 -1058 0
-1010 -1082 0
-1034 -1058 0
-1034 -1082 0
-1058 -1082 0
-1011 -1035 0
-1011 -1059 0
-1011 -1083 0
-1035 -1059 0
-1035 -1083 0
-1059 -1083 0
-1012 -1036 0
-1012 -1060 0
-1012 -1084 0
-1036 -1060 0
-1036 -1084 0
-1060 -1084 0
-1013 -1037 0
-1013 -1061 0
-1013 -1085 0
-1037 -1061 0
-1037 -1085 0
-1061 -1085 0
-1014 -1038 0
-1014 -1062 0
-1014 -1086 0
-1038 -1062 0
-1038 -1086 0
-1062 -1086 0
-926 -948 1087 0
-926 -949 1088 0
-926 -950 1089 0
-927 -948 1091 0
-927 -949 1092 0
-927 -950 1093 0
-928 -948 1095 0
-928 -949 1096 0
-928 -950 1097 0
-929 -948 1099 0
-929 -949 1100 0
-929 -950 1101 0
-930 -948 1103 0
-930 -949 1104 0
-930 -950 1105 0
-931 -948 1107 0
-931 -949 1108 0
-931 -950 1109 0
-932 -952 1087 0
-932 -953 1088 0
-932 -954 1089 0
-933 -952 1091 0
-933 -953 1092 0
-933 -954 1093 0
-934 -952 1095 0
-934 -953 1096 0
-934 -954 1097 0
-935 -952 1099 0
-935 -953 1100 0
-935 -954 1101 0
-936 -952 1103 0
-936 -953 1104 0
-936 -954 1105 0
-937 -952 1107 0
-937 -953 1108 0
-937 -954 1109 0
-938 -956 1087 1091 0
-938 -957 1088 1092 0
-938 -958 1089 1093 0
-939 -956 1091 1095 0
-939 -957 1092 1096 0
-939 -958 1093 1097 0
-940 -956 1095 1099 0
-940 -957 1096 1100 0
-940 -958 1097 1101 0
-941 -956 1099 1103 0
-941 -957 1100 1104 0
-941 -958 1101 1105 0
-942 -956 1103 1107 0
-942 -957 1104 1108 0
-942 -958 1105 1109 0
-943 -960 1087 1091 0
-943 -960 1087 1095 0
-943 -960 1091 1095 0
-943 -961 1088 1092 0
-943 -961 1088 1096 0
-943 -961 1092 1096 0
-943 -962 1089 1093 0
-943 -962 1089 1097 0
-943 -962 1093 1097 0
-944 -960 1091 1095 0
-944 -960 1091 1099 0
-944 -960 1095 1099 0
-944 -961 1092 1096 0
-944 -961 1092 1100 0
-944 -961 1096 1100 0
-944 -962 1093 1097 0
-944 -962 1093 1101 0
-944 -962 1097 1101 0
-945 -960 1095 1099 0
-945 -960 1095 1103 0
-945 -960 1099 1103 0
-945 -961 1096 1100 0
-945 -961 1096 1104 0
-945 -961 1100 1104 0
-945 -962 1097 1101 0
-945 -962 1097 1105 0
-945 -962 1101 1105 0
-946 -960 1099 1103 0
-946 -960 1099 1107 0
-946 -960 1103 1107 0
-946 -961 1100 1104 0
-946 -961 1100 1108 0
-946 -961 1104 1108 0
-946 -962 1101 1105 0
-946 -962 1101 1109 0
-946 -962 1105 1109 0
-926 -947 -963 -1088 0
-926 -947 963 1088 0
-926 -948 -963 -1089 0
-926 -948 963 1089 0
-926 -949 -963 -1090 0
-926 -949 963 1090 0
-926 -950 963 0
-927 -947 -963 -1092 0
-927 -947 963 1092 0
-927 -948 -963 -1093 0
-927 -948 963 1093 0
-927 -949 -963 -1094 0
-927 -949 963 1094 0
-927 -950 963 0
-928 -947 -963 -1096 0
-928 -947 963 1096 0
-928 -948 -963 -1097 0
-928 -948 963 1097 0
-928 -949 -963 -1098 0
-928 -949 963 1098 0
-928 -950 963 0
-929 -947 -963 -1100 0
-929 -947 963 1100 0
-929 -948 -963 -1101 0
-929 -948 963 1101 0
-929 -949 -963 -1102 0
-929 -949 963 1102 0
-929 -950 963 0
-930 -947 -963 -1104 0
-930 -947 963 1104 0
-930 -948 -963 -1105 0
-930 -948 963 1105 0
-930 -949 -963 -1106 0
-930 -949 963 1106 0
-930 -950 963 0
-931 -947 -963 -1108 0
-931 -947 963 1108 0
-931 -948 -963 -1109 0
-931 -948 963 1109 0
-931 -949 -963 -1110 0
-931 -949 963 1110 0
-931 -950 963 0
-932 -951 -964 -1088 0
-932 -951 964 1088 0
-932 -952 -964 -1089 0
-932 -952 964 1089 0
-932 -953 -964 -1090 0
-932 -953 964 1090 0
-932 -954 964 0
-933 -951 -964 -1092 0
-933 -951 964 1092 0
-933 -952 -964 -1093 0
-933 -952 964 1093 0
-933 -953 -964 -1094 0
-933 -953 964 1094 0
-933 -954 964 0
-934 -951 -964 -1096 0
-934 -951 964 1096 0
-934 -952 -964 -1097 0
-934 -952 964 1097 0
-934 -953 -964 -1098 0
-934 -953 964 1098 0
-934 -954 964 0
-935 -951 -964 -1100 0
-935 -951 964 1100 0
-935 -952 -964 -1101 0
-935 -952 964 1101 0
-935 -953 -964 -1102 0
-935 -953 964 1102 0
-935 -954 964 0
-936 -951 -964 -1104 0
-936 -951 964 1104 0
-936 -952 -964 -1105 0
-936 -952 964 1105 0
-936 -953 -964 -1106 0
-936 -953 964 1106 0
-936 -954 964 0
-937 -951 -964 -1108 0
-937 -951 964 1108 0
-937 -952 -964 -1109 0
-937 -952 964 1109 0
-937 -953 -964 -1110 0
-937 -953 964 1110 0
-937 -954 964 0
-938 -955 -965 -1088 0
-938 -955 -965 -1092 0
-938 -955 965 1088 1092 0
-938 -956 -965 -1089 0
-938 -956 -965 -1093 0
-938 -956 965 1089 1093 0
-938 -957 -965 -1090 0
-938 -957 -965 -1094 0
-938 -957 965 1090 1094 0
-938 -958 965 0
-939 -955 -965 -1092 0
-939 -955 -965 -1096 0
-939 -955 965 1092 1096 0
-939 -956 -965 -1093 0
-939 -956 -965 -1097 0
-939 -956 965 1093 1097 0
-939 -957 -965 -1094 0
-939 -957 -965 -1098 0
-939 -957 965 1094 1098 0
-939 -958 965 0
-940 -955 -965 -1096 0
-940 -955 -965 -1100 0
-940 -955 965 1096 1100 0
-940 -956 -965 -1097 0
-940 -956 -965 -1101 0
-940 -956 965 1097 1101 0
-940 -957 -965 -1098 0
-940 -957 -965 -1102 0
-940 -957 965 1098 1102 0
-940 -958 965 0
-941 -955 -965 -1100 0
-941 -955 -965 -1104 0
-941 -955 965 1100 1104 0
-941 -956 -965 -1101 0
-941 -956 -965 -1105 0
-941 -956 965 1101 1105 0
-941 -957 -965 -1102 0
-941 -957 -965 -1106 0
-941 -957 965 1102 1106 0
-941 -958 965 0
-942 -955 -965 -1104 0
-942 -955 -965 -1108 0
-942 -955 965 1104 1108 0
-942 -956 -965 -1105 0
-942 -956 -965 -1109 0
-942 -956 965 1105 1109 0
-942 -957 -965 -1106 0
-942 -957 -965 -1110 0
-942 -957 965 1106 1110 0
-942 -958 965 0
-943 -959 -966 -1088 0
-943 -959 -966 -1092 0
-943 -959 -966 -1096 0
-943 -959 966 1088 1092 1096 0
-943 -960 -966 -1089 0
-943 -960 -966 -1093 0
-943 -960 -966 -1097 0
-943 -960 966 1089 1093 1097 0
-943 -961 -966 -1090 0
-943 -961 -966 -1094 0
-943 -961 -966 -1098 0
-943 -961 966 1090 1094 1098 0
-943 -962 966 0
-944 -959 -966 -1092 0
-944 -959 -966 -1096 0
-944 -959 -966 -1100 0
-944 -959 966 1092 1096 1100 0
-944 -960 -966 -1093 0
-944 -960 -966 -1097 0
-944 -960 -966 -1101 0
-944 -960 966 1093 1097 1101 0
-944 -961 -966 -1094 0
-944 -961 -966 -1098 0
-944 -961 -966 -1102 0
-944 -961 966 1094 1098 1102 0
-944 -962 966 0
-945 -959 -966 -1096 0
-945 -959 -966 -1100 0
-945 -959 -966 -1104 0
-945 -959 966 1096 1100 1104 0
-945 -960 -966 -1097 0
-945 -960 -966 -1101 0
-945 -960 -966 -1105 0
-945 -960 966 1097 1101 1105 0
-945 -961 -966 -1098 0
-945 -961 -966 -1102 0
-945 -961 -966 -1106 0
-945 -961 966 1098 1102 1106 0
-945 -962 966 0
-946 -959 -966 -1100 0
-946 -959 -966 -1104 0
-946 -959 -966 -1108 0
-946 -959 966 1100 1104 1108 0
-946 -960 -966 -1101 0
-946 -960 -966 -1105 0
-946 -960 -966 -1109 0
-946 -960 966 1101 1105 1109 0
-946 -961 -966 -1102 0
-946 -961 -966 -1106 0
-946 -961 -966 -1110 0
-946 -961 966 1102 1106 1110 0
-946 -962 966 0
1111 1112 1113 1114 1115 1116 0
-1111 -1112 0
-1111 -1113 0
-1111 -1114 0
-1111 -1115 0
-1111 -1116 0
-1112 -1113 0
-1112 -1114 0
-1112 -1115 0
-1112 -1116 0
-1113 -1114 0
-1113 -1115 0
-1113 -1116 0
-1114 -1115 0
-1114 -1116 0
-1115 -1116 0
1132 1133 1134 1135 0
-1132 -1133 0
-1132 -1134 0
-1132 -1135 0
-1133 -1134 0
-1133 -1135 0
-1134 -1135 0
1117 1118 1119 1120 1121 1122 0
-1117 -1118 0
-1117 -1119 0
-1117 -1120 0
-1117 -1121 0
-1117 -1122 0
-1118 -1119 0
-1118 -1120 0
-1118 -1121 0
-1118 -1122 0
-1119 -1120 0
-1119 -1121 0
-1119 -1122 0
-1120 -1121 0
-1120 -1122 0
-1121 -1122 0
1136 1137 1138 1139 0
-1136 -1137 0
-1136 -1138 0
-1136 -1139 0
-1137 -1138 0
-1137 -1139 0
-1138 -1139 0
1123 1124 1125 1126 1127 0
-1123 -1124 0
-1123 -1125 0
-1123 -1126 0
-1123 -1127 0
-1124 -1125 0
-1124 -1126 0
-1124 -1127 0
-1125 -1126 0
-1125 -1127 0
-1126 -1127 0
1140 1141 1142 1143 0
-1140 -1141 0
-1140 -1142 0
-1140 -1143 0
-1141 -1142 0
-1141 -1143 0
-1142 -1143 0
1128 1129 1130 1131 0
-1128 -1129 0
-1128 -1130 0
-1128 -1131 0
-1129 -1130 0
-1129 -1131 0
-1130 -1131 0
1144 1145 1146 1147 0
-1144 -1145 0
-1144 -1146 0
-1144 -1147 0
-1145 -1146 0
-1145 -1147 0
-1146 -1147 0
-1152 1111 0
-1111 1152 0
-1176 1152 0
-1176 1132 0
-1152 -1132 1176 0
-1177 1152 0
-1177 1133 0
-1152 -1133 1177 0
-1178 1152 0
-1178 1134 0
-1152 -1134 1178 0
-1179 1152 0
-1179 1135 0
-1152 -1135 1179 0
-1153 1112 0
-1112 1153 0
-1180 1153 0
-1180 1132 0
-1153 -1132 1180 0
-1181 1153 0
-1181 1133 0
-1153 -1133 1181 0
-1182 1153 0
-1182 1134 0
-1153 -1134 1182 0
-1183 1153 0
-1183 1135 0
-1153 -1135 1183 0
-1154 1113 0
-1113 1154 0
-1184 1154 0
-1184 1132 0
-1154 -1132 1184 0
-1185 1154 0
-1185 1133 0
-1154 -1133 1185 0
-1186 1154 0
-1186 1134 0
-1154 -1134 1186 0
-1187 1154 0
-1187 1135 0
-1154 -1135 1187 0
-1155 1114 0
-1114 1155 0
-1188 1155 0
-1188 1132 0
-1155 -1132 1188 0
-1189 1155 0
-1189 1133 0
-1155 -1133 1189 0
-1190 1155 0
-1190 1134 0
-1155 -1134 1190 0
-1191 1155 0
-1191 1135 0
-1155 -1135 1191 0
-1156 1115 0
-1115 1156 0
-1192 1156 0
-1192 1132 0
-1156 -1132 1192 0
-1193 1156 0
-1193 1133 0
-1156 -1133 1193 0
-1194 1156 0
-1194 1134 0
-1156 -1134 1194 0
-1195 1156 0
-1195 1135 0
-1156 -1135 1195 0
-1157 1116 0
-1116 1157 0
-1196 1157 0
-1196 1132 0
-1157 -1132 1196 0
-1197 1157 0
-1197 1133 0
-1157 -1133 1197 0
-1198 1157 0
-1198 1134 0
-1157 -1134 1198 0
-1199 1157 0
-1199 1135 0
-1157 -1135 1199 0
-1158 1117 0
-1117 1158 0
-1200 1158 0
-1200 1136 0
-1158 -1136 1200 0
-1201 1158 0
-1201 1137 0
-1158 -1137 1201 0
-1202 1158 0
-1202 1138 0
-1158 -1138 1202 0
-1203 1158 0
-1203 1139 0
-1158 -1139 1203 0
-1159 1118 0
-1118 1159 0
-1204 1159 0
-1204 1136 0
-1159 -1136 1204 0
-1205 1159 0
-1205 1137 0
-1159 -1137 1205 0
-1206 1159 0
-1206 1138 0
-1159 -1138 1206 0
-1207 1159 0
-1207 1139 0
-1159 -1139 1207 0
-1160 1119 0
-1119 1160 0
-1208 1160 0
-1208 1136 0
-1160 -1136 1208 0
-1209 1160 0
-1209 1137 0
-1160 -1137 1209 0
-1210 1160 0
-1210 1138 0
-1160 -1138 1210 0
-1211 1160 0
-1211 1139 0
-1160 -1139 1211 0
-1161 1120 0
-1120 1161 0
-1212 1161 0
-1212 1136 0
-1161 -1136 1212 0
-1213 1161 0
-1213 1137 0
-1161 -1137 1213 0
-1214 1161 0
-1214 1138 0
-1161 -1138 1214 0
-1215 1161 0
-1215 1139 0
-1161 -1139 1215 0
-1162 1121 0
-1121 1162 0
-1216 1162 0
-1216 1136 0
-1162 -1136 1216 0
-1217 1162 0
-1217 1137 0
-1162 -1137 1217 0
-1218 1162 0
-1218 1138 0
-1162 -1138 1218 0
-1219 1162 0
-1219 1139 0
-1162 -1139 1219 0
-1163 1122 0
-1122 1163 0
-1220 1163 0
-1220 1136 0
-1163 -1136 1220 0
-1221 1163 0
-1221 1137 0
-1163 -1137 1221 0
-1222 1163 0
-1222 1138 0
-1163 -1138 1222 0
-1223 1163 0
-1223 1139 0
-1163 -1139 1223 0
-1164 1123 0
-1123 1164 0
-1224 1164 0
-1224 1140 0
-1164 -1140 1224 0
-1225 1164 0
-1225 1141 0
-1164 -1141 1225 0
-1226 1164 0
-1226 1142 0
-1164 -1142 1226 0
-1227 1164 0
-1227 1143 0
-1164 -1143 1227 0
-1165 1123 1124 0
-1123 1165 0
-1124 1165 0
-1228 1165 0
-1228 1140 0
-1165 -1140 1228 0
-1229 1165 0
-1229 1141 0
-1165 -1141 1229 0
-1230 1165 0
-1230 1142 0
-1165 -1142 1230 0
-1231 1165 0
-1231 1143 0
-1165 -1143 1231 0
-1166 1124 1125 0
-1124 1166 0
-1125 1166 0
-1232 1166 0
-1232 1140 0
-1166 -1140 1232 0
-1233 1166 0
-1233 1141 0
-1166 -1141 1233 0
-1234 1166 0
-1234 1142 0
-1166 -1142 1234 0
-1235 1166 0
-1235 1143 0
-1166 -1143 1235 0
-1167 1125 1126 0
-1125 1167 0
-1126 1167 0
-1236 1167 0
-1236 1140 0
-1167 -1140 1236 0
-1237 1167 0
-1237 1141 0
-1167 -1141 1237 0
-1238 1167 0
-1238 1142 0
-1167 -1142 1238 0
-1239 1167 0
-1239 1143 0
-1167 -1143 1239 0
-1168 1126 1127 0
-1126 1168 0
-1127 1168 0
-1240 1168 0
-1240 1140 0
-1168 -1140 1240 0
-1241 1168 0
-1241 1141 0
-1168 -1141 1241 0
-1242 1168 0
-1242 1142 0
-1168 -1142 1242 0
-1243 1168 0
-1243 1143 0
-1168 -1143 1243 0
-1169 1127 0
-1127 1169 0
-1244 1169 0
-1244 1140 0
-1169 -1140 1244 0
-1245 1169 0
-1245 1141 0
-1169 -1141 1245 0
-1246 1169 0
-1246 1142 0
-1169 -1142 1246 0
-1247 1169 0
-1247 1143 0
-1169 -1143 1247 0
-1170 1128 0
-1128 1170 0
-1248 1170 0
-1248 1144 0
-1170 -1144 1248 0
-1249 1170 0
-1249 1145 0
-1170 -1145 1249 0
-1250 1170 0
-1250 1146 0
-1170 -1146 1250 0
-1251 1170 0
-1251 1147 0
-1170 -1147 1251 0
-1171 1128 1129 0
-1128 1171 0
-1129 1171 0
-1252 1171 0
-1252 1144 0
-1171 -1144 1252 0
-1253 1171 0
-1253 1145 0
-1171 -1145 1253 0
-1254 1171 0
-1254 1146 0
-1171 -1146 1254 0
-1255 1171 0
-1255 1147 0
-1171 -1147 1255 0
-1172 1128 1129 1130 0
-1128 1172 0
-1129 1172 0
-1130 1172 0
-1256 1172 0
-1256 1144 0
-1172 -1144 1256 0
-1257 1172 0
-1257 1145 0
-1172 -1145 1257 0
-1258 1172 0
-1258 1146 0
-1172 -1146 1258 0
-1259 1172 0
-1259 1147 0
-1172 -1147 1259 0
-1173 1129 1130 1131 0
-1129 1173 0
-1130 1173 0
-1131 1173 0
-1260 1173 0
-1260 1144 0
-1173 -1144 1260 0
-1261 1173 0
-1261 1145 0
-1173 -1145 1261 0
-1262 1173 0
-1262 1146 0
-1173 -1146 1262 0
-1263 1173 0
-1263 1147 0
-1173 -1147 1263 0
-1174 1130 1131 0
-1130 1174 0
-1131 1174 0
-1264 1174 0
-1264 1144 0
-1174 -1144 1264 0
-1265 1174 0
-1265 1145 0
-1174 -1145 1265 0
-1266 1174 0
-1266 1146 0
-1174 -1146 1266 0
-1267 1174 0
-1267 1147 0
-1174 -1147 1267 0
-1175 1131 0
-1131 1175 0
-1268 1175 0
-1268 1144 0
-1175 -1144 1268 0
-1269 1175 0
-1269 1145 0
-1175 -1145 1269 0
-1270 1175 0
-1270 1146 0
-1175 -1146 1270 0
-1271 1175 0
-1271 1147 0
-1175 -1147 1271 0
-1272 1176 1200 1224 1248 0
-1176 1272 0
-1200 1272 0
-1224 1272 0
-1248 1272 0
-1273 1177 1201 1225 1249 0
-1177 1273 0
-1201 1273 0
-1225 1273 0
-1249 1273 0
-1274 1178 1202 1226 1250 0
-1178 1274 0
-1202 1274 0
-1226 1274 0
-1250 1274 0
-1275 1179 1203 1227 1251 0
-1179 1275 0
-1203 1275 0
-1227 1275 0
-1251 1275 0
-1276 1180 1204 1228 1252 0
-1180 1276 0
-1204 1276 0
-1228 1276 0
-1252 1276 0
-1277 1181 1205 1229 1253 0
-1181 1277 0
-1205 1277 0
-1229 1277 0
-1253 1277 0
-1278 1182 1206 1230 1254 0
-1182 1278 0
-1206 1278 0
-1230 1278 0
-1254 1278 0
-1279 1183 1207 1231 1255 0
-1183 1279 0
-1207 1279 0
-1231 1279 0
-1255 1279 0
-1280 1184 1208 1232 1256 0
-1184 1280 0
-1208 1280 0
-1232 1280 0
-1256 1280 0
-1281 1185 1209 1233 1257 0
-1185 1281 0
-1209 1281 0
-1233 1281 0
-1257 1281 0
-1282 1186 1210 1234 1258 0
-1186 1282 0
-1210 1282 0
-1234 1282 0
-1258 1282 0
-1283 1187 1211 1235 1259 0
-1187 1283 0
-1211 1283 0
-1235 1283 0
-1259 1283 0
-1284 1188 1212 1236 1260 0
-1188 1284 0
-1212 1284 0
-1236 1284 0
-1260 1284 0
-1285 1189 1213 1237 1261 0
-1189 1285 0
-1213 1285 0
-1237 1285 0
-1261 1285 0
-1286 1190 1214 1238 1262 0
-1190 1286 0
-1214 1286 0
-1238 1286 0
-1262 1286 0
-1287 1191 1215 1239 1263 0
-1191 1287 0
-1215 1287 0
-1239 1287 0
-1263 1287 0
-1288 1192 1216 1240 1264 0
-1192 1288 0
-1216 1288 0
-1240 1288 0
-1264 1288 0
-1289 1193 1217 1241 1265 0
-1193 1289 0
-1217 1289 0
-1241 1289 0
-1265 1289 0
-1290 1194 1218 1242 1266 0
-1194 1290 0
-1218 1290 0
-1242 1290 0
-1266 1290 0
-1291 1195 1219 1243 1267 0
-1195 1291 0
-1219 1291 0
-1243 1291 0
-1267 1291 0
-1292 1196 1220 1244 1268 0
-1196 1292 0
-1220 1292 0
-1244 1292 0
-1268 1292 0
-1293 1197 1221 1245 1269 0
-1197 1293 0
-1221 1293 0
-1245 1293 0
-1269 1293 0
-1294 1198 1222 1246 1270 0
-1198 1294 0
-1222 1294 0
-1246 1294 0
-1270 1294 0
-1295 1199 1223 1247 1271 0
-1199 1295 0
-1223 1295 0
-1247 1295 0
-1271 1295 0
-1176 -1200 0
-1176 -1224 0
-1176 -1248 0
-1200 -1224 0
-1200 -1248 0
-1224 -1248 0
-1177 -1201 0
-1177 -1225 0
-1177 -1249 0
-1201 -1225 0
-1201 -1249 0
-1225 -1249 0
-1178 -1202 0
-1178 -1226 0
-1178 -1250 0
-1202 -1226 0
-1202 -1250 0
-1226 -1250 0
-1179 -1203 0
-1179 -1227 0
-1179 -1251 0
-1203 -1227 0
-1203 -1251 0
-1227 -1251 0
-1180 -1204 0
-1180 -1228 0
-1180 -1252 0
-1204 -1228 0
-1204 -1252 0
-1228 -1252 0
-1181 -1205 0
-1181 -1229 0
-1181 -1253 0
-1205 -1229 0
-1205 -1253 0
-1229 -1253 0
-1182 -1206 0
-1182 -1230 0
-1182 -1254 0
-1206 -1230 0
-1206 -1254 0
-1230 -1254 0
-1183 -1207 0
-1183 -1231 0
-1183 -1255 0
-1207 -1231 0
-1207 -1255 0
-1231 -1255 0
-1184 -1208 0
-1184 -1232 0
-1184 -1256 0
-1208 -1232 0
-1208 -1256 0
-1232 -1256 0
-1185 -1209 0
-1185 -1233 0
-1185 -1257 0
-1209 -1233 0
-1209 -1257 0
-1233 -1257 0
-1186 -1210 0
-1186 -1234 0
-1186 -1258 0
-1210 -1234 0
-1210 -1258 0
-1234 -1258 0
-1187 -1211 0
-1187 -1235 0
-1187 -1259 0
-1211 -1235 0
-1211 -1259 0
-1235 -1259 0
-1188 -1212 0
-1188 -1236 0
-1188 -1260 0
-1212 -1236 0
-1212 -1260 0
-1236 -1260 0
-1189 -1213 0
-1189 -1237 0
-1189 -1261 0
-1213 -1237 0
-1213 -1261 0
-1237 -1261 0
-1190 -1214 0
-1190 -1238 0
-1190 -1262 0
-1214 -1238 0
-1214 -1262 0
-1238 -1262 0
-1191 -1215 0
-1191 -1239 0
-1191 -1263 0
-1215 -1239 0
-1215 -1263 0
-1239 -1263 0
-1192 -1216 0
-1192 -1240 0
-1192 -1264 0
-1216 -1240 0
-1216 -1264 0
-1240 -1264 0
-1193 -1217 0
-1193 -1241 0
-1193 -1265 0
-1217 -1241 0
-1217 -1265 0
-1241 -1265 0
-1194 -1218 0
-1194 -1242 0
-1194 -1266 0
-1218 -1242 0
-1218 -1266 0
-1242 -1266 0
-1195 -1219 0
-1195 -1243 0
-1195 -1267 0
-1219 -1243 0
-1219 -1267 0
-1243 -1267 0
-1196 -1220 0
-1196 -1244 0
-1196 -1268 0
-1220 -1244 0
-1220 -1268 0
-1244 -1268 0
-1197 -1221 0
-1197 -1245 0
-1197 -1269 0
-1221 -1245 0
-1221 -1269 0
-1245 -1269 0
-1198 -1222 0
-1198 -1246 0
-1198 -1270 0
-1222 -1246 0
-1222 -1270 0
-1246 -1270 0
-1199 -1223 0
-1199 -1247 0
-1199 -1271 0
-1223 -1247 0
-1223 -1271 0
-1247 -1271 0
-1111 -1133 1272 0
-1111 -1134 1273 0
-1111 -1135 1274 0
-1112 -1133 1276 0
-1112 -1134 1277 0
-1112 -1135 1278 0
-1113 -1133 1280 0
-1113 -1134 1281 0
-1113 -1135 1282 0
-1114 -1133 1284 0
-1114 -1134 1285 0
-1114 -1135 1286 0
-1115 -1133 1288 0
-1115 -1134 1289 0
-1115 -1135 1290 0
-1116 -1133 1292 0
-1116 -1134 1293 0
-1116 -1135 1294 0
-1117 -1137 1272 0
-1117 -1138 1273 0
-1117 -1139 1274 0
-1118 -1137 1276 0
-1118 -1138 1277 0
-1118 -1139 1278 0
-1119 -1137 1280 0
-1119 -1138 1281 0
-1119 -1139 1282 0
-1120 -1137 1284 0
-1120 -1138 1285 0
-1120 -1139 1286 0
-1121 -1137 1288 0
-1121 -1138 1289 0
-1121 -1139 1290 0
-1122 -1137 1292 0
-1122 -1138 1293 0
-1122 -1139 1294 0
-1123 -1141 1272 1276 0
-1123 -1142 1273 1277 0
-1123 -1143 1274 1278 0
-1124 -1141 1276 1280 0
-1124 -1142 1277 1281 0
-1124 -1143 1278 1282 0
-1125 -1141 1280 1284 0
-1125 -1142 1281 1285 0
-1125 -1143 1282 1286 0
-1126 -1141 1284 1288 0
-1126 -1142 1285 1289 0
-1126 -1143 1286 1290 0
-1127 -1141 1288 1292 0
-1127 -1142 1289 1293 0
-1127 -1143 1290 1294 0
-1128 -1145 1272 1276 0
-1128 -1145 1272 1280 0
-1128 -1145 1276 1280 0
-1128 -1146 1273 1277 0
-1128 -1146 1273 1281 0
-1128 -1146 1277 1281 0
-1128 -1147 1274 1278 0
-1128 -1147 1274 1282 0
-1128 -1147 1278 1282 0
-1129 -1145 1276 1280 0
-1129 -1145 1276 1284 0
-1129 -1145 1280 1284 0
-1129 -1146 1277 1281 0
-1129 -1146 1277 1285 0
-1129 -1146 1281 1285 0
-1129 -1147 1278 1282 0
-1129 -1147 1278 1286 0
-1129 -1147 1282 1286 0
-1130 -1145 1280 1284 0
-1130 -1145 1280 1288 0
-1130 -1145 1284 1288 0
-1130 -1146 1281 1285 0
-1130 -1146 1281 1289 0
-1130 -1146 1285 1289 0
-1130 -1147 1282 1286 0
-1130 -1147 1282 1290 0
-1130 -1147 1286 1290 0
-1131 -1145 1284 1288 0
-1131 -1145 1284 1292 0
-1131 -1145 1288 1292 0
-1131 -1146 1285 1289 0
-1131 -1146 1285 1293 0
-1131 -1146 1289 1293 0
-1131 -1147 1286 1290 0
-1131 -1147 1286 1294 0
-1131 -1147 1290 1294 0
-1111 -1132 -1148 -1273 0
-1111 -1132 1148 1273 0
-1111 -1133 -1148 -1274 0
-1111 -1133 1148 1274 0
-1111 -1134 -1148 -1275 0
-1111 -1134 1148 1275 0
-1111 -1135 1148 0
-1112 -1132 -1148 -1277 0
-1112 -1132 1148 1277 0
-1112 -1133 -1148 -1278 0
-1112 -1133 1148 1278 0
-1112 -1134 -1148 -1279 0
-1112 -1134 1148 1279 0
-1112 -1135 1148 0
-1113 -1132 -1148 -1281 0
-1113 -1132 1148 1281 0
-1113 -1133 -1148 -1282 0
-1113 -1133 1148 1282 0
-1113 -1134 -1148 -1283 0
-1113 -1134 1148 1283 0
-1113 -1135 1148 0
-1114 -1132 -1148 -1285 0
-1114 -1132 1148 1285 0
-1114 -1133 -1148 -1286 0
-1114 -1133 1148 1286 0
-1114 -1134 -1148 -1287 0
-1114 -1134 1148 1287 0
-1114 -1135 1148 0
-1115 -1132 -1148 -1289 0
-1115 -1132 1148 1289 0
-1115 -1133 -1148 -1290 0
-1115 -1133 1148 1290 0
-1115 -1134 -1148 -1291 0
-1115 -1134 1148 1291 0
-1115 -1135 1148 0
-1116 -1132 -1148 -1293 0
-1116 -1132 1148 1293 0
-1116 -1133 -1148 -1294 0
-1116 -1133 1148 1294 0
-1116 -1134 -1148 -1295 0
-1116 -1134 1148 1295 0
-1116 -1135 1148 0
-1117 -1136 -1149 -1273 0
-1117 -1136 1149 1273 0
-1117 -1137 -1149 -1274 0
-1117 -1137 1149 1274 0
-1117 -1138 -1149 -1275 0
-1117 -1138 1149 1275 0
-1117 -1139 1149 0
-1118 -1136 -1149 -1277 0
-1118 -1136 1149 1277 0
-1118 -1137 -1149 -1278 0
-1118 -1137 1149 1278 0
-1118 -1138 -1149 -1279 0
-1118 -1138 1149 1279 0
-1118 -1139 1149 0
-1119 -1136 -1149 -1281 0
-1119 -1136 1149 1281 0
-1119 -1137 -1149 -1282 0
-1119 -1137 1149 1282 0
-1119 -1138 -1149 -1283 0
-1119 -1138 1149 1283 0
-1119 -1139 1149 0
-1120 -1136 -1149 -1285 0
-1120 -1136 1149 1285 0
-1120 -1137 -1149 -1286 0
-1120 -1137 1149 1286 0
-1120 -1138 -1149 -1287 0
-1120 -1138 1149 1287 0
-1120 -1139 1149 0
-1121 -1136 -1149 -1289 0
-1121 -1136 1149 1289 0
-1121 -1137 -1149 -1290 0
-1121 -1137 1149 1290 0
-1121 -1138 -1149 -1291 0
-1121 -1138 1149 1291 0
-1121 -1139 1149 0
-1122 -1136 -1149 -1293 0
-1122 -1136 1149 1293 0
-1122 -1137 -1149 -1294 0
-1122 -1137 1149 1294 0
-1122 -1138 -1149 -1295 0
-1122 -1138 1149 1295 0
-1122 -1139 1149 0
-1123 -1140 -1150 -1273 0
-1123 -1140 -1150 -1277 0
-1123 -1140 1150 1273 1277 0
-1123 -1141 -1150 -1274 0
-1123 -1141 -1150 -1278 0
-1123 -1141 1150 1274 1278 0
-1123 -1142 -1150 -1275 0
-1123 -1142 -1150 -1279 0
-1123 -1142 1150 1275 1279 0
-1123 -1143 1150 0
-1124 -1140 -1150 -1277 0
-1124 -1140 -1150 -1281 0
-1124 -1140 1150 1277 1281 0
-1124 -1141 -1150 -1278 0
-1124 -1141 -1150 -1282 0
-1124 -1141 1150 1278 1282 0
-1124 -1142 -1150 -1279 0
-1124 -1142 -1150 -1283 0
-1124 -1142 1150 1279 1283 0
-1124 -1143 1150 0
-1125 -1140 -1150 -1281 0
-1125 -1140 -1150 -1285 0
-1125 -1140 1150 1281 1285 0
-1125 -1141 -1150 -1282 0
-1125 -1141 -1150 -1286 0
-1125 -1141 1150 1282 1286 0
-1125 -1142 -1150 -1283 0
-1125 -1142 -1150 -1287 0
-1125 -1142 1150 1283 1287 0
-1125 -1143 1150 0
-1126 -1140 -1150 -1285 0
-1126 -1140 -1150 -1289 0
-1126 -1140 1150 1285 1289 0
-1126 -1141 -1150 -1286 0
-1126 -1141 -1150 -1290 0
-1126 -1141 1150 1286 1290 0
-1126 -1142 -1150 -1287 0
-1126 -1142 -1150 -1291 0
-1126 -1142 1150 1287 1291 0
-1126 -1143 1150 0
-1127 -1140 -1150 -1289 0
-1127 -1140 -1150 -1293 0
-1127 -1140 1150 1289 1293 0
-1127 -1141 -1150 -1290 0
-1127 -1141 -1150 -1294 0
-1127 -1141 1150 1290 1294 0
-1127 -1142 -1150 -1291 0
-1127 -1142 -1150 -1295 0
-1127 -1142 1150 1291 1295 0
-1127 -1143 1150 0
-1128 -1144 -1151 -1273 0
-1128 -1144 -1151 -1277 0
-1128 -1144 -1151 -1281 0
-1128 -1144 1151 1273 1277 1281 0
-1128 -1145 -1151 -1274 0
-1128 -1145 -1151 -1278 0
-1128 -1145 -1151 -1282 0
-1128 -1145 1151 1274 1278 1282 0
-1128 -1146 -1151 -1275 0
-1128 -1146 -1151 -1279 0
-1128 -1146 -1151 -1283 0
-1128 -1146 1151 1275 1279 1283 0
-1128 -1147 1151 0
-1129 -1144 -1151 -1277 0
-1129 -1144 -1151 -1281 0
-1129 -1144 -1151 -1285 0
-1129 -1144 1151 1277 1281 1285 0
-1129 -1145 -1151 -1278 0
-1129 -1145 -1151 -1282 0
-1129 -1145 -1151 -1286 0
-1129 -1145 1151 1278 1282 1286 0
-1129 -1146 -1151 -1279 0
-1129 -1146 -1151 -1283 0
-1129 -1146 -1151 -1287 0
-1129 -1146 1151 1279 1283 1287 0
-1129 -1147 1151 0
-1130 -1144 -1151 -1281 0
-1130 -1144 -1151 -1285 0
-1130 -1144 -1151 -1289 0
-1130 -1144 1151 1281 1285 1289 0
-1130 -1145 -1151 -1282 0
-1130 -1145 -1151 -1286 0
-1130 -1145 -1151 -1290 0
-1130 -1145 1151 1282 1286 1290 0
-1130 -1146 -1151 -1283 0
-1130 -1146 -1151 -1287 0
-1130 -1146 -1151 -1291 0
-1130 -1146 1151 1283 1287 1291 0
-1130 -1147 1151 0
-1131 -1144 -1151 -1285 0
-1131 -1144 -1151 -1289 0
-1131 -1144 -1151 -1293 0
-1131 -1144 1151 1285 1289 1293 0
-1131 -1145 -1151 -1286 0
-1131 -1145 -1151 -1290 0
-1131 -1145 -1151 -1294 0
-1131 -1145 1151 1286 1290 1294 0
-1131 -1146 -1151 -1287 0
-1131 -1146 -1151 -1291 0
-1131 -1146 -1151 -1295 0
-1131 -1146 1151 1287 1291 1295 0
-1131 -1147 1151 0
-1296 -1297 0
-1296 -1298 0
-1296 -1299 0
-1296 -1300 0
-1296 -1301 0
-1296 -1302 0
-1296 -1303 0
-1296 -1304 0
-1296 -1305 0
-1296 -1306 0
-1296 -1307 0
-1296 -1308 0
-1296 -1309 0
-1296 -1310 0
-1296 -1311 0
-1296 -1312 0
-1296 -1313 0
-1296 -1314 0
-1296 -1315 0
-1296 -1316 0
-1296 -1317 0
-1296 -1318 0
-1296 -1319 0
-1296 -1320 0
-1296 -1321 0
-1296 -1322 0
-1296 -1323 0
-1296 -1324 0
-1296 -1325 0
-1296 -1326 0
-1296 -1327 0
-1296 -1328 0
-1296 -1329 0
-1296 -1330 0
-1296 -1331 0
-1296 -1332 0
-1296 -1333 0
-1296 -1334 0
-1296 -1335 0
-1296 -1336 0
-1296 -1337 0
-1296 -1338 0
-1296 -1339 0
-1296 -1340 0
-1296 -1341 0
-1296 -1342 0
-1296 -1343 0
-1296 -1344 0
-1296 -1345 0
-1296 -1346 0
-1296 -1347 0
-1296 -1348 0
-1296 -1349 0
-1296 -1350 0
-1296 -1351 0
-1296 -1352 0
-1296 -1353 0
-1296 -1354 0
-1296 -1355 0
-1296 -1356 0
-1296 -1357 0
-1296 -1358 0
-1296 -1359 0
-1296 -1360 0
-1296 -1361 0
-1296 -1362 0
-1296 -1363 0
-1296 -1364 0
-1296 -1365 0
-1296 -1366 0
-1296 -1367 0
-1296 -1368 0
-1296 -1369 0
-1296 -1370 0
-1296 -1371 0
-1296 -1372 0
-1296 -1373 0
-1296 -1374 0
-1296 -1375 0
-1296 -1376 0
-1296 -1377 0
-1296 -1378 0
-1296 -1379 0
-1297 -1298 0
-1297 -1299 0
-1297 -1300 0
-1297 -1301 0
-1297 -1302 0
-1297 -1303 0
-1297 -1304 0
-1297 -1305 0
-1297 -1306 0
-1297 -1307 0
-1297 -1308 0
-1297 -1309 0
-1297 -1310 0
-1297 -1311 0
-1297 -1312 0
-1297 -1313 0
-1297 -1314 0
-1297 -1315 0
-1297 -1316 0
-1297 -1317 0
-1297 -1318 0
-1297 -1319 0
-1297 -1320 0
-1297 -1321 0
-1297 -1322 0
-1297 -1323 0
-1297 -1324 0
-1297 -1325 0
-1297 -1326 0
-1297 -1327 0
-1297 -1328 0
-1297 -1329 0
-1297 -1330 0
-1297 -1331 0
-1297 -1332 0
-1297 -1333 0
-1297 -1334 0
-1297 -1335 0
-1297 -1336 0
-1297 -1337 0
-1297 -1338 0
-1297 -1339 0
-1297 -1340 0
-1297 -1341 0
-1297 -1342 0
-1297 -1343 0
-1297 -1344 0
-1297 -1345 0
-1297 -1346 0
-1297 -1347 0
-1297 -1348 0
-1297 -1349 0
-1297 -1350 0
-1297 -1351 0
-1297 -1352 0
-1297 -1353 0
-1297 -1354 0
-1297 -1355 0
-1297 -1356 0
-1297 -1357 0
-1297 -1358 0
-1297 -1359 0
-1297 -1360 0
-1297 -1361 0
-1297 -1362 0
-1297 -1363 0
-1297 -1364 0
-1297 -1365 0
-1297 -1366 0
-1297 -1367 0
-1297 -1368 0
-1297 -1369 0
-1297 -1370 0
-1297 -1371 0
-1297 -1372 0
-1297 -1373 0
-1297 -1374 0
-1297 -1375 0
-1297 -1376 0
-1297 -1377 0
-1297 -1378 0
-1297 -1379 0
-1298 -1299 0
-1298 -1300 0
-1298 -1301 0
-1298 -1302 0
-1298 -1303 0
-1298 -1304 0
-1298 -1305 0
-1298 -1306 0
-1298 -1307 0
-1298 -1308 0
-1298 -1309 0
-1298 -1310 0
-1298 -1311 0
-1298 -1312 0
-1298 -1313 0
-1298 -1314 0
-1298 -1315 0
-1298 -1316 0
-1298 -1317 0
-1298 -1318 0
-1298 -1319 0
-1298 -1320 0
-1298 -1321 0
-1298 -1322 0
-1298 -1323 0
-1298 -1324 0
-1298 -1325 0
-1298 -1326 0
-1298 -1327 0
-1298 -1328 0
-1298 -1329 0
-1298 -1330 0
-1298 -1331 0
-1298 -1332 0
-1298 -1333 0
-1298 -1334 0
-1298 -1335 0
-1298 -1336 0
-1298 -1337 0
-1298 -1338 0
-1298 -1339 0
-1298 -1340 0
-1298 -1341 0
-1298 -1342 0
-1298 -1343 0
-1298 -1344 0
-1298 -1345 0
-1298 -1346 0
-1298 -1347 0
-1298 -1348 0
-1298 -1349 0
-1298 -1350 0
-1298 -1351 0
-1298 -1352 0
-1298 -1353 0
-1298 -1354 0
-1298 -1355 0
-1298 -1356 0
-1298 -1357 0
-1298 -1358 0
-1298 -1359 0
-1298 -1360 0
-1298 -1361 0
-1298 -1362 0
-1298 -1363 0
-1298 -1364 0
-1298 -1365 0
-1298 -1366 0
-1298 -1367 0
-1298 -1368 0
-1298 -1369 0
-1298 -1370 0
-1298 -1371 0
-1298 -1372 0
-1298 -1373 0
-1298 -1374 0
-1298 -1375 0
-1298 -1376 0
-1298 -1377 0
-1298 -1378 0
-1298 -1379 0
-1299 -1300 0
-1299 -1301 0
-1299 -1302 0
-1299 -1303 0
-1299 -1304 0
-1299 -1305 0
-1299 -1306 0
-1299 -1307 0
-1299 -1308 0
-1299 -1309 0
-1299 -1310 0
-1299 -1311 0
-1299 -1312 0
-1299 -1313 0
-1299 -1314 0
-1299 -1315 0
-1299 -1316 0
-1299 -1317 0
-1299 -1318 0
-1299 -1319 0
-1299 -1320 0
-1299 -1321 0
-1299 -1322 0
-1299 -1323 0
-1299 -1324 0
-1299 -1325 0
-1299 -1326 0
-1299 -1327 0
-1299 -1328 0
-1299 -1329 0
-1299 -1330 0
-1299 -1331 0
-1299 -1332 0
-1299 -1333 0
-1299 -1334 0
-1299 -1335 0
-1299 -1336 0
-1299 -1337 0
-1299 -1338 0
-1299 -1339 0
-1299 -1340 0
-1299 -1341 0
-1299 -1342 0
-1299 -1343 0
-1299 -1344 0
-1299 -1345 0
-1299 -1346 0
-1299 -1347 0
-1299 -1348 0
-1299 -1349 0
-1299 -1350 0
-1299 -1351 0
-1299 -1352 0
-1299 -1353 0
-1299 -1354 0
-1299 -1355 0
-1299 -1356 0
-1299 -1357 0
-1299 -1358 0
-1299 -1359 0
-1299 -1360 0
-1299 -1361 0
-1299 -1362 0
-1299 -1363 0
-1299 -1364 0
-1299 -1365 0
-1299 -1366 0
-1299 -1367 0
-1299 -1368 0
-1299 -1369 0
-1299 -1370 0
-1299 -1371 0
-1299 -1372 0
-1299 -1373 0
-1299 -1374 0
-1299 -1375 0
-1299 -1376 0
-1299 -1377 0
-1299 -1378 0
-1299 -1379 0
-1300 -1301 0
-1300 -1302 0
-1300 -1303 0
-1300 -1304 0
-1300 -1305 0
-1300 -1306 0
-1300 -1307 0
-1300 -1308 0
-1300 -1309 0
-1300 -1310 0
-1300 -1311 0
-1300 -1312 0
-1300 -1313 0
-1300 -1314 0
-1300 -1315 0
-1300 -1316 0
-1300 -1317 0
-1300 -1318 0
-1300 -1319 0
-1300 -1320 0
-1300 -1321 0
-1300 -1322 0
-1300 -1323 0
-1300 -1324 0
-1300 -1325 0
-1300 -1326 0
-1300 -1327 0
-1300 -1328 0
-1300 -1329 0
-1300 -1330 0
-1300 -1331 0
-1300 -1332 0
-1300 -1333 0
-1300 -1334 0
-1300 -1335 0
-1300 -1336 0
-1300 -1337 0
-1300 -1338 0
-1300 -1339 0
-1300 -1340 0
-1300 -1341 0
-1300 -1342 0
-1300 -1343 0
-1300 -1344 0
-1300 -1345 0
-1300 -1346 0
-1300 -1347 0
-1300 -1348 0
-1300 -1349 0
-1300 -1350 0
-1300 -1351 0
-1300 -1352 0
-1300 -1353 0
-1300 -1354 0
-1300 -1355 0
-1300 -1356 0
-1300 -1357 0
-1300 -1358 0
-1300 -1359 0
-1300 -1360 0
-1300 -1361 0
-1300 -1362 0
-1300 -1363 0
-1300 -1364 0
-1300 -1365 0
-1300 -1366 0
-1300 -1367 0
-1300 -1368 0
-1300 -1369 0
-1300 -1370 0
-1300 -1371 0
-1300 -1372 0
-1300 -1373 0
-1300 -1374 0
-1300 -1375 0
-1300 -1376 0
-1300 -1377 0
-1300 -1378 0
-1300 -1379 0
-1301 -1302 0
-1301 -1303 0
-1301 -1304 0
-1301 -1305 0
-1301 -1306 0
-1301 -1307 0
-1301 -1308 0
-1301 -1309 0
-1301 -1310 0
-1301 -1311 0
-1301 -1312 0
-1301 -1313 0
-1301 -1314 0
-1301 -1315 0
-1301 -1316 0
-1301 -1317 0
-1301 -1318 0
-1301 -1319 0
-1301 -1320 0
-1301 -1321 0
-1301 -1322 0
-1301 -1323 0
-1301 -1324 0
-1301 -1325 0
-1301 -1326 0
-1301 -1327 0
-1301 -1328 0
-1301 -1329 0
-1301 -1330 0
-1301 -1331 0
-1301 -1332 0
-1301 -1333 0
-1301 -1334 0
-1301 -1335 0
-1301 -1336 0
-1301 -1337 0
-1301 -1338 0
-1301 -1339 0
-1301 -1340 0
-1301 -1341 0
-1301 -1342 0
-1301 -1343 0
-1301 -1344 0
-1301 -1345 0
-1301 -1346 0
-1301 -1347 0
-1301 -1348 0
-1301 -1349 0
-1301 -1350 0
-1301 -1351 0
-1301 -1352 0
-1301 -1353 0
-1301 -1354 0
-1301 -1355 0
-1301 -1356 0
-1301 -1357 0
-1301 -1358 0
-1301 -1359 0
-1301 -1360 0
-1301 -1361 0
-1301 -1362 0
-1301 -1363 0
-1301 -1364 0
-1301 -1365 0
-1301 -1366 0
-1301 -1367 0
-1301 -1368 0
-1301 -1369 0
-1301 -1370 0
-1301 -1371 0
-1301 -1372 0
-1301 -1373 0
-1301 -1374 0
-1301 -1375 0
-1301 -1376 0
-1301 -1377 0
-1301 -1378 0
-1301 -1379 0
-1302 -1303 0
-1302 -1304 0
-1302 -1305 0
-1302 -1306 0
-1302 -1307 0
-1302 -1308 0
-1302 -1309 0
-1302 -1310 0
-1302 -1311 0
-1302 -1312 0
-1302 -1313 0
-1302 -1314 0
-1302 -1315 0
-1302 -1316 0
-1302 -1317 0
-1302 -1318 0
-1302 -1319 0
-1302 -1320 0
-1302 -1321 0
-1302 -1322 0
-1302 -1323 0
-1302 -1324 0
-1302 -1325 0
-1302 -1326 0
-1302 -1327 0
-1302 -1328 0
-1302 -1329 0
-1302 -1330 0
-1302 -1331 0
-1302 -1332 0
-1302 -1333 0
-1302 -1334 0
-1302 -1335 0
-1302 -1336 0
-1302 -1337 0
-1302 -1338 0
-1302 -1339 0
-1302 -1340 0
-1302 -1341 0
-1302 -1342 0
-1302 -1343 0
-1302 -1344 0
-1302 -1345 0
-1302 -1346 0
-1302 -1347 0
-1302 -1348 0
-1302 -1349 0
-1302 -1350 0
-1302 -1351 0
-1302 -1352 0
-1302 -1353 0
-1302 -1354 0
-1302 -1355 0
-1302 -1356 0
-1302 -1357 0
-1302 -1358 0
-1302 -1359 0
-1302 -1360 0
-1302 -1361 0
-1302 -1362 0
-1302 -1363 0
-1302 -1364 0
-1302 -1365 0
-1302 -1366 0
-1302 -1367 0
-1302 -1368 0
-1302 -1369 0
-1302 -1370 0
-1302 -1371 0
-1302 -1372 0
-1302 -1373 0
-1302 -1374 0
-1302 -1375 0
-1302 -1376 0
-1302 -1377 0
-1302 -1378 0
-1302 -1379 0
-1303 -1304 0
-1303 -1305 0
-1303 -1306 0
-1303 -1307 0
-1303 -1308 0
-1303 -1309 0
-1303 -1310 0
-1303 -1311 0
-1303 -1312 0
-1303 -1313 0
-1303 -1314 0
-1303 -1315 0
-1303 -1316 0
-1303 -1317 0
-1303 -1318 0
-1303 -1319 0
-1303 -1320 0
-1303 -1321 0
-1303 -1322 0
-1303 -1323 0
-1303 -1324 0
-1303 -1325 0
-1303 -1326 0
-1303 -1327 0
-1303 -1328 0
-1303 -1329 0
-1303 -1330 0
-1303 -1331 0
-1303 -1332 0
-1303 -1333 0
-1303 -1334 0
-1303 -1335 0
-1303 -1336 0
-1303 -1337 0
-1303 -1338 0
-1303 -1339 0
-1303 -1340 0
-1303 -1341 0
-1303 -1342 0
-1303 -1343 0
-1303 -1344 0
-1303 -1345 0
-1303 -1346 0
-1303 -1347 0
-1303 -1348 0
-1303 -1349 0
-1303 -1350 0
-1303 -1351 0
-1303 -1352 0
-1303 -1353 0
-1303 -1354 0
-1303 -1355 0
-1303 -1356 0
-1303 -1357 0
-1303 -1358 0
-1303 -1359 0
-1303 -1360 0
-1303 -1361 0
-1303 -1362 0
-1303 -1363 0
-1303 -1364 0
-1303 -1365 0
-1303 -1366 0
-1303 -1367 0
-1303 -1368 0
-1303 -1369 0
-1303 -1370 0
-1303 -1371 0
-1303 -1372 0
-1303 -1373 0
-1303 -1374 0
-1303 -1375 0
-1303 -1376 0
-1303 -1377 0
-1303 -1378 0
-1303 -1379 0
-1304 -1305 0
-1304 -1306 0
-1304 -1307 0
-1304 -1308 0
-1304 -1309 0
-1304 -1310 0
-1304 -1311 0
-1304 -1312 0
-1304 -1313 0
-1304 -1314 0
-1304 -1315 0
-1304 -1316 0
-1304 -1317 0
-1304 -1318 0
-1304 -1319 0
-1304 -1320 0
-1304 -1321 0
-1304 -1322 0
-1304 -1323 0
-1304 -1324 0
-1304 -1325 0
-1304 -1326 0
-1304 -1327 0
-1304 -1328 0
-1304 -1329 0
-1304 -1330 0
-1304 -1331 0
-1304 -1332 0
-1304 -1333 0
-1304 -1334 0
-1304 -1335 0
-1304 -1336 0
-1304 -1337 0
-1304 -1338 0
-1304 -1339 0
-1304 -1340 0
-1304 -1341 0
-1304 -1342 0
-1304 -1343 0
-1304 -1344 0
-1304 -1345 0
-1304 -1346 0
-1304 -1347 0
-1304 -1348 0
-1304 -1349 0
-1304 -1350 0
-1304 -1351 0
-1304 -1352 0
-1304 -1353 0
-1304 -1354 0
-1304 -1355 0
-1304 -1356 0
-1304 -1357 0
-1304 -1358 0
-1304 -1359 0
-1304 -1360 0
-1304 -1361 0
-1304 -1362 0
-1304 -1363 0
-1304 -1364 0
-1304 -1365 0
-1304 -1366 0
-1304 -1367 0
-1304 -1368 0
-1304 -1369 0
-1304 -1370 0
-1304 -1371 0
-1304 -1372 0
-1304 -1373 0
-1304 -1374 0
-1304 -1375 0
-1304 -1376 0
-1304 -1377 0
-1304 -1378 0
-1304 -1379 0
-1305 -1306 0
-1305 -1307 0
-1305 -1308 0
-1305 -1309 0
-1305 -1310 0
-1305 -1311 0
-1305 -1312 0
-1305 -1313 0
-1305 -1314 0
-1305 -1315 0
-1305 -1316 0
-1305 -1317 0
-1305 -1318 0
-1305 -1319 0
-1305 -1320 0
-1305 -1321 0
-1305 -1322 0
-1305 -1323 0
-1305 -1324 0
-1305 -1325 0
-1305 -1326 0
-1305 -1327 0
-1305 -1328 0
-1305 -1329 0
-1305 -1330 0
-1305 -1331 0
-1305 -1332 0
-1305 -1333 0
-1305 -1334 0
-1305 -1335 0
-1305 -1336 0
-1305 -1337 0
-1305 -1338 0
-1305 -1339 0
-1305 -1340 0
-1305 -1341 0
-1305 -1342 0
-1305 -1343 0
-1305 -1344 0
-1305 -1345 0
-1305 -1346 0
-1305 -1347 0
-1305 -1348 0
-1305 -1349 0
-1305 -1350 0
-1305 -1351 0
-1305 -1352 0
-1305 -1353 0
-1305 -1354 0
-1305 -1355 0
-1305 -1356 0
-1305 -1357 0
-1305 -1358 0
-1305 -1359 0
-1305 -1360 0
-1305 -1361 0
-1305 -1362 0
-1305 -1363 0
-1305 -1364 0
-1305 -1365 0
-1305 -1366 0
-1305 -1367 0
-1305 -1368 0
-1305 -1369 0
-1305 -1370 0
-1305 -1371 0
-1305 -1372 0
-1305 -1373 0
-1305 -1374 0
-1305 -1375 0
-1305 -1376 0
-1305 -1377 0
-1305 -1378 0
-1305 -1379 0
-1306 -1307 0
-1306 -1308 0
-1306 -1309 0
-1306 -1310 0
-1306 -1311 0
-1306 -1312 0
-1306 -1313 0
-1306 -1314 0
-1306 -1315 0
-1306 -1316 0
-1306 -1317 0
-1306 -1318 0
-1306 -1319 0
-1306 -1320 0
-1306 -1321 0
-1306 -1322 0
-1306 -1323 0
-1306 -1324 0
-1306 -1325 0
-1306 -1326 0
-1306 -1327 0
-1306 -1328 0
-1306 -1329 0
-1306 -1330 0
-1306 -1331 0
-1306 -1332 0
-1306 -1333 0
-1306 -1334 0
-1306 -1335 0
-1306 -1336 0
-1306 -1337 0
-1306 -1338 0
-1306 -1339 0
-1306 -1340 0
-1306 -1341 0
-1306 -1342 0
-1306 -1343 0
-1306 -1344 0
-1306 -1345 0
-1306 -1346 0
-1306 -1347 0
-1306 -1348 0
-1306 -1349 0
-1306 -1350 0
-1306 -1351 0
-1306 -1352 0
-1306 -1353 0
-1306 -1354 0
-1306 -1355 0
-1306 -1356 0
-1306 -1357 0
-1306 -1358 0
-1306 -1359 0
-1306 -1360 0
-1306 -1361 0
-1306 -1362 0
-1306 -1363 0
-1306 -1364 0
-1306 -1365 0
-1306 -1366 0
-1306 -1367 0
-1306 -1368 0
-1306 -1369 0
-1306 -1370 0
-1306 -1371 0
-1306 -1372 0
-1306 -1373 0
-1306 -1374 0
-1306 -1375 0
-1306 -1376 0
-1306 -1377 0
-1306 -1378 0
-1306 -1379 0
-1307 -1308 0
-1307 -1309 0
-1307 -1310 0
-1307 -1311 0
-1307 -1312 0
-1307 -1313 0
-1307 -1314 0
-1307 -1315 0
-1307 -1316 0
-1307 -1317 0
-1307 -1318 0
-1307 -1319 0
-1307 -1320 0
-1307 -1321 0
-1307 -1322 0
-1307 -1323 0
-1307 -1324 0
-1307 -1325 0
-1307 -1326 0
-1307 -1327 0
-1307 -1328 0
-1307 -1329 0
-1307 -1330 0
-1307 -1331 0
-1307 -1332 0
-1307 -1333 0
-1307 -1334 0
-1307 -1335 0
-1307 -1336 0
-1307 -1337 0
-1307 -1338 0
-1307 -1339 0
-1307 -1340 0
-1307 -1341 0
-1307 -1342 0
-1307 -1343 0
-1307 -1344 0
-1307 -1345 0
-1307 -1346 0
-1307 -1347 0
-1307 -1348 0
-1307 -1349 0
-1307 -1350 0
-1307 -1351 0
-1307 -1352 0
-1307 -1353 0
-1307 -1354 0
-1307 -1355 0
-1307 -1356 0
-1307 -1357 0
-1307 -1358 0
-1307 -1359 0
-1307 -1360 0
-1307 -1361 0
-1307 -1362 0
-1307 -1363 0
-1307 -1364 0
-1307 -1365 0
-1307 -1366 0
-1307 -1367 0
-1307 -1368 0
-1307 -1369 0
-1307 -1370 0
-1307 -1371 0
-1307 -1372 0
-1307 -1373 0
-1307 -1374 0
-1307 -1375 0
-1307 -1376 0
-1307 -1377 0
-1307 -1378 0
-1307 -1379 0
-1308 -1309 0
-1308 -1310 0
-1308 -1311 0
-1308 -1312 0
-1308 -1313 0
-1308 -1314 0
-1308 -1315 0
-1308 -1316 0
-1308 -1317 0
-1308 -1318 0
-1308 -1319 0
-1308 -1320 0
-1308 -1321 0
-1308 -1322 0
-1308 -1323 0
-1308 -1324 0
-1308 -1325 0
-1308 -1326 0
-1308 -1327 0
-1308 -1328 0
-1308 -1329 0
-1308 -1330 0
-1308 -1331 0
-1308 -1332 0
-1308 -1333 0
-1308 -1334 0
-1308 -1335 0
-1308 -1336 0
-1308 -1337 0
-1308 -1338 0
-1308 -1339 0
-1308 -1340 0
-1308 -1341 0
-1308 -1342 0
-1308 -1343 0
-1308 -1344 0
-1308 -1345 0
-1308 -1346 0
-1308 -1347 0
-1308 -1348 0
-1308 -1349 0
-1308 -1350 0
-1308 -1351 0
-1308 -1352 0
-1308 -1353 0
-1308 -1354 0
-1308 -1355 0
-1308 -1356 0
-1308 -1357 0
-1308 -1358 0
-1308 -1359 0
-1308 -1360 0
-1308 -1361 0
-1308 -1362 0
-1308 -1363 0
-1308 -1364 0
-1308 -1365 0
-1308 -1366 0
-1308 -1367 0
-1308 -1368 0
-1308 -1369 0
-1308 -1370 0
-1308 -1371 0
-1308 -1372 0
-1308 -1373 0
-1308 -1374 0
-1308 -1375 0
-1308 -1376 0
-1308 -1377 0
-1308 -1378 0
-1308 -1379 0
-1309 -1310 0
-1309 -1311 0
-1309 -1312 0
-1309 -1313 0
-1309 -1314 0
-1309 -1315 0
-1309 -1316 0
-1309 -1317 0
-1309 -1318 0
-1309 -1319 0
-1309 -1320 0
-1309 -1321 0
-1309 -1322 0
-1309 -1323 0
-1309 -1324 0
-1309 -1325 0
-1309 -1326 0
-1309 -1327 0
-1309 -1328 0
-1309 -1329 0
-1309 -1330 0
-1309 -1331 0
-1309 -1332 0
-1309 -1333 0
-1309 -1334 0
-1309 -1335 0
-1309 -1336 0
-1309 -1337 0
-1309 -1338 0
-1309 -1339 0
-1309 -1340 0
-1309 -1341 0
-1309 -1342 0
-1309 -1343 0
-1309 -1344 0
-1309 -1345 0
-1309 -1346 0
-1309 -1347 0
-1309 -1348 0
-1309 -1349 0
-1309 -1350 0
-1309 -1351 0
-1309 -1352 0
-1309 -1353 0
-1309 -1354 0
-1309 -1355 0
-1309 -1356 0
-1309 -1357 0
-1309 -1358 0
-1309 -1359 0
-1309 -1360 0
-1309 -1361 0
-1309 -1362 0
-1309 -1363 0
-1309 -1364 0
-1309 -1365 0
-1309 -1366 0
-1309 -1367 0
-1309 -1368 0
-1309 -1369 0
-1309 -1370 0
-1309 -1371 0
-1309 -1372 0
-1309 -1373 0
-1309 -1374 0
-1309 -1375 0
-1309 -1376 0
-1309 -1377 0
-1309 -1378 0
-1309 -1379 0
-1310 -1311 0
-1310 -1312 0
-1310 -1313 0
-1310 -1314 0
-1310 -1315 0
-1310 -1316 0
-1310 -1317 0
-1310 -1318 0
-1310 -1319 0
-1310 -1320 0
-1310 -1321 0
-1310 -1322 0
-1310 -1323 0
-1310 -1324 0
-1310 -1325 0
-1310 -1326 0
-1310 -1327 0
-1310 -1328 0
-1310 -1329 0
-1310 -1330 0
-1310 -1331 0
-1310 -1332 0
-1310 -1333 0
-1310 -1334 0
-1310 -1335 0
-1310 -1336 0
-1310 -1337 0
-1310 -1338 0
-1310 -1339 0
-1310 -1340 0
-1310 -1341 0
-1310 -1342 0
-1310 -1343 0
-1310 -1344 0
-1310 -1345 0
-1310 -1346 0
-1310 -1347 0
-1310 -1348 0
-1310 -1349 0
-1310 -1350 0
-1310 -1351 0
-1310 -1352 0
-1310 -1353 0
-1310 -1354 0
-1310 -1355 0
-1310 -1356 0
-1310 -1357 0
-1310 -1358 0
-1310 -1359 0
-1310 -1360 0
-1310 -1361 0
-1310 -1362 0
-1310 -1363 0
-1310 -1364 0
-1310 -1365 0
-1310 -1366 0
-1310 -1367 0
-1310 -1368 0
-1310 -1369 0
-1310 -1370 0
-1310 -1371 0
-1310 -1372 0
-1310 -1373 0
-1310 -1374 0
-1310 -1375 0
-1310 -1376 0
-1310 -1377 0
-1310 -1378 0
-1310 -1379 0
-1311 -1312 0
-1311 -1313 0
-1311 -1314 0
-1311 -1315 0
-1311 -1316 0
-1311 -1317 0
-1311 -1318 0
-1311 -1319 0
-1311 -1320 0
-1311 -1321 0
-1311 -1322 0
-1311 -1323 0
-1311 -1324 0
-1311 -1325 0
-1311 -1326 0
-1311 -1327 0
-1311 -1328 0
-1311 -1329 0
-1311 -1330 0
-1311 -1331 0
-1311 -1332 0
-1311 -1333 0
-1311 -1334 0
-1311 -1335 0
-1311 -1336 0
-1311 -1337 0
-1311 -1338 0
-1311 -1339 0
-1311 -1340 0
-1311 -1341 0
-1311 -1342 0
-1311 -1343 0
-1311 -1344 0
-1311 -1345 0
-1311 -1346 0
-1311 -1347 0
-1311 -1348 0
-1311 -1349 0
-1311 -1350 0
-1311 -1351 0
-1311 -1352 0
-1311 -1353 0
-1311 -1354 0
-1311 -1355 0
-1311 -1356 0
-1311 -1357 0
-1311 -1358 0
-1311 -1359 0
-1311 -1360 0
-1311 -1361 0
-1311 -1362 0
-1311 -1363 0
-1311 -1364 0
-1311 -1365 0
-1311 -1366 0
-1311 -1367 0
-1311 -1368 0
-1311 -1369 0
-1311 -1370 0
-1311 -1371 0
-1311 -1372 0
-1311 -1373 0
-1311 -1374 0
-1311 -1375 0
-1311 -1376 0
-1311 -1377 0
-1311 -1378 0
-1311 -1379 0
-1312 -1313 0
-1312 -1314 0
-1312 -1315 0
-1312 -1316 0
-1312 -1317 0
-1312 -1318 0
-1312 -1319 0
-1312 -1320 0
-1312 -1321 0
-1312 -1322 0
-1312 -1323 0
-1312 -1324 0
-1312 -1325 0
-1312 -1326 0
-1312 -1327 0
-1312 -1328 0
-1312 -1329 0
-1312 -1330 0
-1312 -1331 0
-1312 -1332 0
-1312 -1333 0
-1312 -1334 0
-1312 -1335 0
-1312 -1336 0
-1312 -1337 0
-1312 -1338 0
-1312 -1339 0
-1312 -1340 0
-1312 -1341 0
-1312 -1342 0
-1312 -1343 0
-1312 -1344 0
-1312 -1345 0
-1312 -1346 0
-1312 -1347 0
-1312 -1348 0
-1312 -1349 0
-1312 -1350 0
-1312 -1351 0
-1312 -1352 0
-1312 -1353 0
-1312 -1354 0
-1312 -1355 0
-1312 -1356 0
-1312 -1357 0
-1312 -1358 0
-1312 -1359 0
-1312 -1360 0
-1312 -1361 0
-1312 -1362 0
-1312 -1363 0
-1312 -1364 0
-1312 -1365 0
-1312 -1366 0
-1312 -1367 0
-1312 -1368 0
-1312 -1369 0
-1312 -1370 0
-1312 -1371 0
-1312 -1372 0
-1312 -1373 0
-1312 -1374 0
-1312 -1375 0
-1312 -1376 0
-1312 -1377 0
-1312 -1378 0
-1312 -1379 0
-1313 -1314 0
-1313 -1315 0
-1313 -1316 0
-1313 -1317 0
-1313 -1318 0
-1313 -1319 0
-1313 -1320 0
-1313 -1321 0
-1313 -1322 0
-1313 -1323 0
-1313 -1324 0
-1313 -1325 0
-1313 -1326 0
-1313 -1327 0
-1313 -1328 0
-1313 -1329 0
-1313 -1330 0
-1313 -1331 0
-1313 -1332 0
-1313 -1333 0
-1313 -1334 0
-1313 -1335 0
-1313 -1336 0
-1313 -1337 0
-1313 -1338 0
-1313 -1339 0
-1313 -1340 0
-1313 -1341 0
-1313 -1342 0
-1313 -1343 0
-1313 -1344 0
-1313 -1345 0
-1313 -1346 0
-1313 -1347 0
-1313 -1348 0
-1313 -1349 0
-1313 -1350 0
-1313 -1351 0
-1313 -1352 0
-1313 -1353 0
-1313 -1354 0
-1313 -1355 0
-1313 -1356 0
-1313 -1357 0
-1313 -1358 0
-1313 -1359 0
-1313 -1360 0
-1313 -1361 0
-1313 -1362 0
-1313 -1363 0
-1313 -1364 0
-1313 -1365 0
-1313 -1366 0
-1313 -1367 0
-1313 -1368 0
-1313 -1369 0
-1313 -1370 0
-1313 -1371 0
-1313 -1372 0
-1313 -1373 0
-1313 -1374 0
-1313 -1375 0
-1313 -1376 0
-1313 -1377 0
-1313 -1378 0
-1313 -1379 0
-1314 -1315 0
-1314 -1316 0
-1314 -1317 0
-1314 -1318 0
-1314 -1319 0
-1314 -1320 0
-1314 -1321 0
-1314 -1322 0
-1314 -1323 0
-1314 -1324 0
-1314 -1325 0
-1314 -1326 0
-1314 -1327 0
-1314 -1328 0
-1314 -1329 0
-1314 -1330 0
-1314 -1331 0
-1314 -1332 0
-1314 -1333 0
-1314 -1334 0
-1314 -1335 0
-1314 -1336 0
-1314 -1337 0
-1314 -1338 0
-1314 -1339 0
-1314 -1340 0
-1314 -1341 0
-1314 -1342 0
-1314 -1343 0
-1314 -1344 0
-1314 -1345 0
-1314 -1346 0
-1314 -1347 0
-1314 -1348 0
-1314 -1349 0
-1314 -1350 0
-1314 -1351 0
-1314 -1352 0
-1314 -1353 0
-1314 -1354 0
-1314 -1355 0
-1314 -1356 0
-1314 -1357 0
-1314 -1358 0
-1314 -1359 0
-1314 -1360 0
-1314 -1361 0
-1314 -1362 0
-1314 -1363 0
-1314 -1364 0
-1314 -1365 0
-1314 -1366 0
-1314 -1367 0
-1314 -1368 0
-1314 -1369 0
-1314 -1370 0
-1314 -1371 0
-1314 -1372 0
-1314 -1373 0
-1314 -1374 0
-1314 -1375 0
-1314 -1376 0
-1314 -1377 0
-1314 -1378 0
-1314 -1379 0
-1315 -1316 0
-1315 -1317 0
-1315 -1318 0
-1315 -1319 0
-1315 -1320 0
-1315 -1321 0
-1315 -1322 0
-1315 -1323 0
-1315 -1324 0
-1315 -1325 0
-1315 -1326 0
-1315 -1327 0
-1315 -1328 0
-1315 -1329 0
-1315 -1330 0
-1315 -1331 0
-1315 -1332 0
-1315 -1333 0
-1315 -1334 0
-1315 -1335 0
-1315 -1336 0
-1315 -1337 0
-1315 -1338 0
-1315 -1339 0
-1315 -1340 0
-1315 -1341 0
-1315 -1342 0
-1315 -1343 0
-1315 -1344 0
-1315 -1345 0
-1315 -1346 0
-1315 -1347 0
-1315 -1348 0
-1315 -1349 0
-1315 -1350 0
-1315 -1351 0
-1315 -1352 0
-1315 -1353 0
-1315 -1354 0
-1315 -1355 0
-1315 -1356 0
-1315 -1357 0
-1315 -1358 0
-1315 -1359 0
-1315 -1360 0
-1315 -1361 0
-1315 -1362 0
-1315 -1363 0
-1315 -1364 0
-1315 -1365 0
-1315 -1366 0
-1315 -1367 0
-1315 -1368 0
-1315 -1369 0
-1315 -1370 0
-1315 -1371 0
-1315 -1372 0
-1315 -1373 0
-1315 -1374 0
-1315 -1375 0
-1315 -1376 0
-1315 -1377 0
-1315 -1378 0
-1315 -1379 0
-1316 -1317 0
-1316 -1318 0
-1316 -1319 0
-1316 -1320 0
-1316 -1321 0
-1316 -1322 0
-1316 -1323 0
-1316 -1324 0
-1316 -1325 0
-1316 -1326 0
-1316 -1327 0
-1316 -1328 0
-1316 -1329 0
-1316 -1330 0
-1316 -1331 0
-1316 -1332 0
-1316 -1333 0
-1316 -1334 0
-1316 -1335 0
-1316 -1336 0
-1316 -1337 0
-1316 -1338 0
-1316 -1339 0
-1316 -1340 0
-1316 -1341 0
-1316 -1342 0
-1316 -1343 0
-1316 -1344 0
-1316 -1345 0
-1316 -1346 0
-1316 -1347 0
-1316 -1348 0
-1316 -1349 0
-1316 -1350 0
-1316 -1351 0
-1316 -1352 0
-1316 -1353 0
-1316 -1354 0
-1316 -1355 0
-1316 -1356 0
-1316 -1357 0
-1316 -1358 0
-1316 -1359 0
-1316 -1360 0
-1316 -1361 0
-1316 -1362 0
-1316 -1363 0
-1316 -1364 0
-1316 -1365 0
-1316 -1366 0
-1316 -1367 0
-1316 -1368 0
-1316 -1369 0
-1316 -1370 0
-1316 -1371 0
-1316 -1372 0
-1316 -1373 0
-1316 -1374 0
-1316 -1375 0
-1316 -1376 0
-1316 -1377 0
-1316 -1378 0
-1316 -1379 0
-1317 -1318 0
-1317 -1319 0
-1317 -1320 0
-1317 -1321 0
-1317 -1322 0
-1317 -1323 0
-1317 -1324 0
-1317 -1325 0
-1317 -1326 0
-1317 -1327 0
-1317 -1328 0
-1317 -1329 0
-1317 -1330 0
-1317 -1331 0
-1317 -1332 0
-1317 -1333 0
-1317 -1334 0
-1317 -1335 0
-1317 -1336 0
-1317 -1337 0
-1317 -1338 0
-1317 -1339 0
-1317 -1340 0
-1317 -1341 0
-1317 -1342 0
-1317 -1343 0
-1317 -1344 0
-1317 -1345 0
-1317 -1346 0
-1317 -1347 0
-1317 -1348 0
-1317 -1349 0
-1317 -1350 0
-1317 -1351 0
-1317 -1352 0
-1317 -1353 0
-1317 -1354 0
-1317 -1355 0
-1317 -1356 0
-1317 -1357 0
-1317 -1358 0
-1317 -1359 0
-1317 -1360 0
-1317 -1361 0
-1317 -1362 0
-1317 -1363 0
-1317 -1364 0
-1317 -1365 0
-1317 -1366 0
-1317 -1367 0
-1317 -1368 0
-1317 -1369 0
-1317 -1370 0
-1317 -1371 0
-1317 -1372 0
-1317 -1373 0
-1317 -1374 0
-1317 -1375 0
-1317 -1376 0
-1317 -1377 0
-1317 -1378 0
-1317 -1379 0
-1318 -1319 0
-1318 -1320 0
-1318 -1321 0
-1318 -1322 0
-1318 -1323 0
-1318 -1324 0
-1318 -1325 0
-1318 -1326 0
-1318 -1327 0
-1318 -1328 0
-1318 -1329 0
-1318 -1330 0
-1318 -1331 0
-1318 -1332 0
-1318 -1333 0
-1318 -1334 0
-1318 -1335 0
-1318 -1336 0
-1318 -1337 0
-1318 -1338 0
-1318 -1339 0
-1318 -1340 0
-1318 -1341 0
-1318 -1342 0
-1318 -1343 0
-1318 -1344 0
-1318 -1345 0
-1318 -1346 0
-1318 -1347 0
-1318 -1348 0
-1318 -1349 0
-1318 -1350 0
-1318 -1351 0
-1318 -1352 0
-1318 -1353 0
-1318 -1354 0
-1318 -1355 0
-1318 -1356 0
-1318 -1357 0
-1318 -1358 0
-1318 -1359 0
-1318 -1360 0
-1318 -1361 0
-1318 -1362 0
-1318 -1363 0
-1318 -1364 0
-1318 -1365 0
-1318 -1366 0
-1318 -1367 0
-1318 -1368 0
-1318 -1369 0
-1318 -1370 0
-1318 -1371 0
-1318 -1372 0
-1318 -1373 0
-1318 -1374 0
-1318 -1375 0
-1318 -1376 0
-1318 -1377 0
-1318 -1378 0
-1318 -1379 0
-1319 -1320 0
-1319 -1321 0
-1319 -1322 0
-1319 -1323 0
-1319 -1324 0
-1319 -1325 0
-1319 -1326 0
-1319 -1327 0
-1319 -1328 0
-1319 -1329 0
-1319 -1330 0
-1319 -1331 0
-1319 -1332 0
-1319 -1333 0
-1319 -1334 0
-1319 -1335 0
-1319 -1336 0
-1319 -1337 0
-1319 -1338 0
-1319 -1339 0
-1319 -1340 0
-1319 -1341 0
-1319 -1342 0
-1319 -1343 0
-1319 -1344 0
-1319 -1345 0
-1319 -1346 0
-1319 -1347 0
-1319 -1348 0
-1319 -1349 0
-1319 -1350 0
-1319 -1351 0
-1319 -1352 0
-1319 -1353 0
-1319 -1354 0
-1319 -1355 0
-1319 -1356 0
-1319 -1357 0
-1319 -1358 0
-1319 -1359 0
-1319 -1360 0
-1319 -1361 0
-1319 -1362 0
-1319 -1363 0
-1319 -1364 0
-1319 -1365 0
-1319 -1366 0
-1319 -1367 0
-1319 -1368 0
-1319 -1369 0
-1319 -1370 0
-1319 -1371 0
-1319 -1372 0
-1319 -1373 0
-1319 -1374 0
-1319 -1375 0
-1319 -1376 0
-1319 -1377 0
-1319 -1378 0
-1319 -1379 0
-1320 -1321 0
-1320 -1322 0
-1320 -1323 0
-1320 -1324 0
-1320 -1325 0
-1320 -1326 0
-1320 -1327 0
-1320 -1328 0
-1320 -1329 0
-1320 -1330 0
-1320 -1331 0
-1320 -1332 0
-1320 -1333 0
-1320 -1334 0
-1320 -1335 0
-1320 -1336 0
-1320 -1337 0
-1320 -1338 0
-1320 -1339 0
-1320 -1340 0
-1320 -1341 0
-1320 -1342 0
-1320 -1343 0
-1320 -1344 0
-1320 -1345 0
-1320 -1346 0
-1320 -1347 0
-1320 -1348 0
-1320 -1349 0
-1320 -1350 0
-1320 -1351 0
-1320 -1352 0
-1320 -1353 0
-1320 -1354 0
-1320 -1355 0
-1320 -1356 0
-1320 -1357 0
-1320 -1358 0
-1320 -1359 0
-1320 -1360 0
-1320 -1361 0
-1320 -1362 0
-1320 -1363 0
-1320 -1364 0
-1320 -1365 0
-1320 -1366 0
-1320 -1367 0
-1320 -1368 0
-1320 -1369 0
-1320 -1370 0
-1320 -1371 0
-1320 -1372 0
-1320 -1373 0
-1320 -1374 0
-1320 -1375 0
-1320 -1376 0
-1320 -1377 0
-1320 -1378 0
-1320 -1379 0
-1321 -1322 0
-1321 -1323 0
-1321 -1324 0
-1321 -1325 0
-1321 -1326 0
-1321 -1327 0
-1321 -1328 0
-1321 -1329 0
-1321 -1330 0
-1321 -1331 0
-1321 -1332 0
-1321 -1333 0
-1321 -1334 0
-1321 -1335 0
-1321 -1336 0
-1321 -1337 0
-1321 -1338 0
-1321 -1339 0
-1321 -1340 0
-1321 -1341 0
-1321 -1342 0
-1321 -1343 0
-1321 -1344 0
-1321 -1345 0
-1321 -1346 0
-1321 -1347 0
-1321 -1348 0
-1321 -1349 0
-1321 -1350 0
-1321 -1351 0
-1321 -1352 0
-1321 -1353 0
-1321 -1354 0
-1321 -1355 0
-1321 -1356 0
-1321 -1357 0
-1321 -1358 0
-1321 -1359 0
-1321 -1360 0
-1321 -1361 0
-1321 -1362 0
-1321 -1363 0
-1321 -1364 0
-1321 -1365 0
-1321 -1366 0
-1321 -1367 0
-1321 -1368 0
-1321 -1369 0
-1321 -1370 0
-1321 -1371 0
-1321 -1372 0
-1321 -1373 0
-1321 -1374 0
-1321 -1375 0
-1321 -1376 0
-1321 -1377 0
-1321 -1378 0
-1321 -1379 0
-1322 -1323 0
-1322 -1324 0
-1322 -1325 0
-1322 -1326 0
-1322 -1327 0
-1322 -1328 0
-1322 -1329 0
-1322 -1330 0
-1322 -1331 0
-1322 -1332 0
-1322 -1333 0
-1322 -1334 0
-1322 -1335 0
-1322 -1336 0
-1322 -1337 0
-1322 -1338 0
-1322 -1339 0
-1322 -1340 0
-1322 -1341 0
-1322 -1342 0
-1322 -1343 0
-1322 -1344 0
-1322 -1345 0
-1322 -1346 0
-1322 -1347 0
-1322 -1348 0
-1322 -1349 0
-1322 -1350 0
-1322 -1351 0
-1322 -1352 0
-1322 -1353 0
-1322 -1354 0
-1322 -1355 0
-1322 -1356 0
-1322 -1357 0
-1322 -1358 0
-1322 -1359 0
-1322 -1360 0
-1322 -1361 0
-1322 -1362 0
-1322 -1363 0
-1322 -1364 0
-1322 -1365 0
-1322 -1366 0
-1322 -1367 0
-1322 -1368 0
-1322 -1369 0
-1322 -1370 0
-1322 -1371 0
-1322 -1372 0
-1322 -1373 0
-1322 -1374 0
-1322 -1375 0
-1322 -1376 0
-1322 -1377 0
-1322 -1378 0
-1322 -1379 0
-1323 -1324 0
-1323 -1325 0
-1323 -1326 0
-1323 -1327 0
-1323 -1328 0
-1323 -1329 0
-1323 -1330 0
-1323 -1331 0
-1323 -1332 0
-1323 -1333 0
-1323 -1334 0
-1323 -1335 0
-1323 -1336 0
-1323 -1337 0
-1323 -1338 0
-1323 -1339 0
-1323 -1340 0
-1323 -1341 0
-1323 -1342 0
-1323 -1343 0
-1323 -1344 0
-1323 -1345 0
-1323 -1346 0
-1323 -1347 0
-1323 -1348 0
-1323 -1349 0
-1323 -1350 0
-1323 -1351 0
-1323 -1352 0
-1323 -1353 0
-1323 -1354 0
-1323 -1355 0
-1323 -1356 0
-1323 -1357 0
-1323 -1358 0
-1323 -1359 0
-1323 -1360 0
-1323 -1361 0
-1323 -1362 0
-1323 -1363 0
-1323 -1364 0
-1323 -1365 0
-1323 -1366 0
-1323 -1367 0
-1323 -1368 0
-1323 -1369 0
-1323 -1370 0
-1323 -1371 0
-1323 -1372 0
-1323 -1373 0
-1323 -1374 0
-1323 -1375 0
-1323 -1376 0
-1323 -1377 0
-1323 -1378 0
-1323 -1379 0
-1324 -1325 0
-1324 -1326 0
-1324 -1327 0
-1324 -1328 0
-1324 -1329 0
-1324 -1330 0
-1324 -1331 0
-1324 -1332 0
-1324 -1333 0
-1324 -1334 0
-1324 -1335 0
-1324 -1336 0
-1324 -1337 0
-1324 -1338 0
-1324 -1339 0
-1324 -1340 0
-1324 -1341 0
-1324 -1342 0
-1324 -1343 0
-1324 -1344 0
-1324 -1345 0
-1324 -1346 0
-1324 -1347 0
-1324 -1348 0
-1324 -1349 0
-1324 -1350 0
-1324 -1351 0
-1324 -1352 0
-1324 -1353 0
-1324 -1354 0
-1324 -1355 0
-1324 -1356 0
-1324 -1357 0
-1324 -1358 0
-1324 -1359 0
-1324 -1360 0
-1324 -1361 0
-1324 -1362 0
-1324 -1363 0
-1324 -1364 0
-1324 -1365 0
-1324 -1366 0
-1324 -1367 0
-1324 -1368 0
-1324 -1369 0
-1324 -1370 0
-1324 -1371 0
-1324 -1372 0
-1324 -1373 0
-1324 -1374 0
-1324 -1375 0
-1324 -1376 0
-1324 -1377 0
-1324 -1378 0
-1324 -1379 0
-1325 -1326 0
-1325 -1327 0
-1325 -1328 0
-1325 -1329 0
-1325 -1330 0
-1325 -1331 0
-1325 -1332 0
-1325 -1333 0
-1325 -1334 0
-1325 -1335 0
-1325 -1336 0
-1325 -1337 0
-1325 -1338 0
-1325 -1339 0
-1325 -1340 0
-1325 -1341 0
-1325 -1342 0
-1325 -1343 0
-1325 -1344 0
-1325 -1345 0
-1325 -1346 0
-1325 -1347 0
-1325 -1348 0
-1325 -1349 0
-1325 -1350 0
-1325 -1351 0
-1325 -1352 0
-1325 -1353 0
-1325 -1354 0
-1325 -1355 0
-1325 -1356 0
-1325 -1357 0
-1325 -1358 0
-1325 -1359 0
-1325 -1360 0
-1325 -1361 0
-1325 -1362 0
-1325 -1363 0
-1325 -1364 0
-1325 -1365 0
-1325 -1366 0
-1325 -1367 0
-1325 -1368 0
-1325 -1369 0
-1325 -1370 0
-1325 -1371 0
-1325 -1372 0
-1325 -1373 0
-1325 -1374 0
-1325 -1375 0
-1325 -1376 0
-1325 -1377 0
-1325 -1378 0
-1325 -1379 0
-1326 -1327 0
-1326 -1328 0
-1326 -1329 0
-1326 -1330 0
-1326 -1331 0
-1326 -1332 0
-1326 -1333 0
-1326 -1334 0
-1326 -1335 0
-1326 -1336 0
-1326 -1337 0
-1326 -1338 0
-1326 -1339 0
-1326 -1340 0
-1326 -1341 0
-1326 -1342 0
-1326 -1343 0
-1326 -1344 0
-1326 -1345 0
-1326 -1346 0
-1326 -1347 0
-1326 -1348 0
-1326 -1349 0
-1326 -1350 0
-1326 -1351 0
-1326 -1352 0
-1326 -1353 0
-1326 -1354 0
-1326 -1355 0
-1326 -1356 0
-1326 -1357 0
-1326 -1358 0
-1326 -1359 0
-1326 -1360 0
-1326 -1361 0
-1326 -1362 0
-1326 -1363 0
-1326 -1364 0
-1326 -1365 0
-1326 -1366 0
-1326 -1367 0
-1326 -1368 0
-1326 -1369 0
-1326 -1370 0
-1326 -1371 0
-1326 -1372 0
-1326 -1373 0
-1326 -1374 0
-1326 -1375 0
-1326 -1376 0
-1326 -1377 0
-1326 -1378 0
-1326 -1379 0
-1327 -1328 0
-1327 -1329 0
-1327 -1330 0
-1327 -1331 0
-1327 -1332 0
-1327 -1333 0
-1327 -1334 0
-1327 -1335 0
-1327 -1336 0
-1327 -1337 0
-1327 -1338 0
-1327 -1339 0
-1327 -1340 0
-1327 -1341 0
-1327 -1342 0
-1327 -1343 0
-1327 -1344 0
-1327 -1345 0
-1327 -1346 0
-1327 -1347 0
-1327 -1348 0
-1327 -1349 0
-1327 -1350 0
-1327 -1351 0
-1327 -1352 0
-1327 -1353 0
-1327 -1354 0
-1327 -1355 0
-1327 -1356 0
-1327 -1357 0
-1327 -1358 0
-1327 -1359 0
-1327 -1360 0
-1327 -1361 0
-1327 -1362 0
-1327 -1363 0
-1327 -1364 0
-1327 -1365 0
-1327 -1366 0
-1327 -1367 0
-1327 -1368 0
-1327 -1369 0
-1327 -1370 0
-1327 -1371 0
-1327 -1372 0
-1327 -1373 0
-1327 -1374 0
-1327 -1375 0
-1327 -1376 0
-1327 -1377 0
-1327 -1378 0
-1327 -1379 0
-1328 -1329 0
-1328 -1330 0
-1328 -1331 0
-1328 -1332 0
-1328 -1333 0
-1328 -1334 0
-1328 -1335 0
-1328 -1336 0
-1328 -1337 0
-1328 -1338 0
-1328 -1339 0
-1328 -1340 0
-1328 -1341 0
-1328 -1342 0
-1328 -1343 0
-1328 -1344 0
-1328 -1345 0
-1328 -1346 0
-1328 -1347 0
-1328 -1348 0
-1328 -1349 0
-1328 -1350 0
-1328 -1351 0
-1328 -1352 0
-1328 -1353 0
-1328 -1354 0
-1328 -1355 0
-1328 -1356 0
-1328 -1357 0
-1328 -1358 0
-1328 -1359 0
-1328 -1360 0
-1328 -1361 0
-1328 -1362 0
-1328 -1363 0
-1328 -1364 0
-1328 -1365 0
-1328 -1366 0
-1328 -1367 0
-1328 -1368 0
-1328 -1369 0
-1328 -1370 0
-1328 -1371 0
-1328 -1372 0
-1328 -1373 0
-1328 -1374 0
-1328 -1375 0
-1328 -1376 0
-1328 -1377 0
-1328 -1378 0
-1328 -1379 0
-1329 -1330 0
-1329 -1331 0
-1329 -1332 0
-1329 -1333 0
-1329 -1334 0
-1329 -1335 0
-1329 -1336 0
-1329 -1337 0
-1329 -1338 0
-1329 -1339 0
-1329 -1340 0
-1329 -1341 0
-1329 -1342 0
-1329 -1343 0
-1329 -1344 0
-1329 -1345 0
-1329 -1346 0
-1329 -1347 0
-1329 -1348 0
-1329 -1349 0
-1329 -1350 0
-1329 -1351 0
-1329 -1352 0
-1329 -1353 0
-1329 -1354 0
-1329 -1355 0
-1329 -1356 0
-1329 -1357 0
-1329 -1358 0
-1329 -1359 0
-1329 -1360 0
-1329 -1361 0
-1329 -1362 0
-1329 -1363 0
-1329 -1364 0
-1329 -1365 0
-1329 -1366 0
-1329 -1367 0
-1329 -1368 0
-1329 -1369 0
-1329 -1370 0
-1329 -1371 0
-1329 -1372 0
-1329 -1373 0
-1329 -1374 0
-1329 -1375 0
-1329 -1376 0
-1329 -1377 0
-1329 -1378 0
-1329 -1379 0
-1330 -1331 0
-1330 -1332 0
-1330 -1333 0
-1330 -1334 0
-1330 -1335 0
-1330 -1336 0
-1330 -1337 0
-1330 -1338 0
-1330 -1339 0
-1330 -1340 0
-1330 -1341 0
-1330 -1342 0
-1330 -1343 0
-1330 -1344 0
-1330 -1345 0
-1330 -1346 0
-1330 -1347 0
-1330 -1348 0
-1330 -1349 0
-1330 -1350 0
-1330 -1351 0
-1330 -1352 0
-1330 -1353 0
-1330 -1354 0
-1330 -1355 0
-1330 -1356 0
-1330 -1357 0
-1330 -1358 0
-1330 -1359 0
-1330 -1360 0
-1330 -1361 0
-1330 -1362 0
-1330 -1363 0
-1330 -1364 0
-1330 -1365 0
-1330 -1366 0
-1330 -1367 0
-1330 -1368 0
-1330 -1369 0
-1330 -1370 0
-1330 -1371 0
-1330 -1372 0
-1330 -1373 0
-1330 -1374 0
-1330 -1375 0
-1330 -1376 0
-1330 -1377 0
-1330 -1378 0
-1330 -1379 0
-1331 -1332 0
-1331 -1333 0
-1331 -1334 0
-1331 -1335 0
-1331 -1336 0
-1331 -1337 0
-1331 -1338 0
-1331 -1339 0
-1331 -1340 0
-1331 -1341 0
-1331 -1342 0
-1331 -1343 0
-1331 -1344 0
-1331 -1345 0
-1331 -1346 0
-1331 -1347 0
-1331 -1348 0
-1331 -1349 0
-1331 -1350 0
-1331 -1351 0
-1331 -1352 0
-1331 -1353 0
-1331 -1354 0
-1331 -1355 0
-1331 -1356 0
-1331 -1357 0
-1331 -1358 0
-1331 -1359 0
-1331 -1360 0
-1331 -1361 0
-1331 -1362 0
-1331 -1363 0
-1331 -1364 0
-1331 -1365 0
-1331 -1366 0
-1331 -1367 0
-1331 -1368 0
-1331 -1369 0
-1331 -1370 0
-1331 -1371 0
-1331 -1372 0
-1331 -1373 0
-1331 -1374 0
-1331 -1375 0
-1331 -1376 0
-1331 -1377 0
-1331 -1378 0
-1331 -1379 0
-1332 -1333 0
-1332 -1334 0
-1332 -1335 0
-1332 -1336 0
-1332 -1337 0
-1332 -1338 0
-1332 -1339 0
-1332 -1340 0
-1332 -1341 0
-1332 -1342 0
-1332 -1343 0
-1332 -1344 0
-1332 -1345 0
-1332 -1346 0
-1332 -1347 0
-1332 -1348 0
-1332 -1349 0
-1332 -1350 0
-1332 -1351 0
-1332 -1352 0
-1332 -1353 0
-1332 -1354 0
-1332 -1355 0
-1332 -1356 0
-1332 -1357 0
-1332 -1358 0
-1332 -1359 0
-1332 -1360 0
-1332 -1361 0
-1332 -1362 0
-1332 -1363 0
-1332 -1364 0
-1332 -1365 0
-1332 -1366 0
-1332 -1367 0
-1332 -1368 0
-1332 -1369 0
-1332 -1370 0
-1332 -1371 0
-1332 -1372 0
-1332 -1373 0
-1332 -1374 0
-1332 -1375 0
-1332 -1376 0
-1332 -1377 0
-1332 -1378 0
-1332 -1379 0
-1333 -1334 0
-1333 -1335 0
-1333 -1336 0
-1333 -1337 0
-1333 -1338 0
-1333 -1339 0
-1333 -1340 0
-1333 -1341 0
-1333 -1342 0
-1333 -1343 0
-1333 -1344 0
-1333 -1345 0
-1333 -1346 0
-1333 -1347 0
-1333 -1348 0
-1333 -1349 0
-1333 -1350 0
-1333 -1351 0
-1333 -1352 0
-1333 -1353 0
-1333 -1354 0
-1333 -1355 0
-1333 -1356 0
-1333 -1357 0
-1333 -1358 0
-1333 -1359 0
-1333 -1360 0
-1333 -1361 0
-1333 -1362 0
-1333 -1363 0
-1333 -1364 0
-1333 -1365 0
-1333 -1366 0
-1333 -1367 0
-1333 -1368 0
-1333 -1369 0
-1333 -1370 0
-1333 -1371 0
-1333 -1372 0
-1333 -1373 0
-1333 -1374 0
-1333 -1375 0
-1333 -1376 0
-1333 -1377 0
-1333 -1378 0
-1333 -1379 0
-1334 -1335 0
-1334 -1336 0
-1334 -1337 0
-1334 -1338 0
-1334 -1339 0
-1334 -1340 0
-1334 -1341 0
-1334 -1342 0
-1334 -1343 0
-1334 -1344 0
-1334 -1345 0
-1334 -1346 0
-1334 -1347 0
-1334 -1348 0
-1334 -1349 0
-1334 -1350 0
-1334 -1351 0
-1334 -1352 0
-1334 -1353 0
-1334 -1354 0
-1334 -1355 0
-1334 -1356 0
-1334 -1357 0
-1334 -1358 0
-1334 -1359 0
-1334 -1360 0
-1334 -1361 0
-1334 -1362 0
-1334 -1363 0
-1334 -1364 0
-1334 -1365 0
-1334 -1366 0
-1334 -1367 0
-1334 -1368 0
-1334 -1369 0
-1334 -1370 0
-1334 -1371 0
-1334 -1372 0
-1334 -1373 0
-1334 -1374 0
-1334 -1375 0
-1334 -1376 0
-1334 -1377 0
-1334 -1378 0
-1334 -1379 0
-1335 -1336 0
-1335 -1337 0
-1335 -1338 0
-1335 -1339 0
-1335 -1340 0
-1335 -1341 0
-1335 -1342 0
-1335 -1343 0
-1335 -1344 0
-1335 -1345 0
-1335 -1346 0
-1335 -1347 0
-1335 -1348 0
-1335 -1349 0
-1335 -1350 0
-1335 -1351 0
-1335 -1352 0
-1335 -1353 0
-1335 -1354 0
-1335 -1355 0
-1335 -1356 0
-1335 -1357 0
-1335 -1358 0
-1335 -1359 0
-1335 -1360 0
-1335 -1361 0
-1335 -1362 0
-1335 -1363 0
-1335 -1364 0
-1335 -1365 0
-1335 -1366 0
-1335 -1367 0
-1335 -1368 0
-1335 -1369 0
-1335 -1370 0
-1335 -1371 0
-1335 -1372 0
-1335 -1373 0
-1335 -1374 0
-1335 -1375 0
-1335 -1376 0
-1335 -1377 0
-1335 -1378 0
-1335 -1379 0
-1336 -1337 0
-1336 -1338 0
-1336 -1339 0
-1336 -1340 0
-1336 -1341 0
-1336 -1342 0
-1336 -1343 0
-1336 -1344 0
-1336 -1345 0
-1336 -1346 0
-1336 -1347 0
-1336 -1348 0
-1336 -1349 0
-1336 -1350 0
-1336 -1351 0
-1336 -1352 0
-1336 -1353 0
-1336 -1354 0
-1336 -1355 0
-1336 -1356 0
-1336 -1357 0
-1336 -1358 0
-1336 -1359 0
-1336 -1360 0
-1336 -1361 0
-1336 -1362 0
-1336 -1363 0
-1336 -1364 0
-1336 -1365 0
-1336 -1366 0
-1336 -1367 0
-1336 -1368 0
-1336 -1369 0
-1336 -1370 0
-1336 -1371 0
-1336 -1372 0
-1336 -1373 0
-1336 -1374 0
-1336 -1375 0
-1336 -1376 0
-1336 -1377 0
-1336 -1378 0
-1336 -1379 0
-1337 -1338 0
-1337 -1339 0
-1337 -1340 0
-1337 -1341 0
-1337 -1342 0
-1337 -1343 0
-1337 -1344 0
-1337 -1345 0
-1337 -1346 0
-1337 -1347 0
-1337 -1348 0
-1337 -1349 0
-1337 -1350 0
-1337 -1351 0
-1337 -1352 0
-1337 -1353 0
-1337 -1354 0
-1337 -1355 0
-1337 -1356 0
-1337 -1357 0
-1337 -1358 0
-1337 -1359 0
-1337 -1360 0
-1337 -1361 0
-1337 -1362 0
-1337 -1363 0
-1337 -1364 0
-1337 -1365 0
-1337 -1366 0
-1337 -1367 0
-1337 -1368 0
-1337 -1369 0
-1337 -1370 0
-1337 -1371 0
-1337 -1372 0
-1337 -1373 0
-1337 -1374 0
-1337 -1375 0
-1337 -1376 0
-1337 -1377 0
-1337 -1378 0
-1337 -1379 0
-1338 -1339 0
-1338 -1340 0
-1338 -1341 0
-1338 -1342 0
-1338 -1343 0
-1338 -1344 0
-1338 -1345 0
-1338 -1346 0
-1338 -1347 0
-1338 -1348 0
-1338 -1349 0
-1338 -1350 0
-1338 -1351 0
-1338 -1352 0
-1338 -1353 0
-1338 -1354 0
-1338 -1355 0
-1338 -1356 0
-1338 -1357 0
-1338 -1358 0
-1338 -1359 0
-1338 -1360 0
-1338 -1361 0
-1338 -1362 0
-1338 -1363 0
-1338 -1364 0
-1338 -1365 0
-1338 -1366 0
-1338 -1367 0
-1338 -1368 0
-1338 -1369 0
-1338 -1370 0
-1338 -1371 0
-1338 -1372 0
-1338 -1373 0
-1338 -1374 0
-1338 -1375 0
-1338 -1376 0
-1338 -1377 0
-1338 -1378 0
-1338 -1379 0
-1339 -1340 0
-1339 -1341 0
-1339 -1342 0
-1339 -1343 0
-1339 -1344 0
-1339 -1345 0
-1339 -1346 0
-1339 -1347 0
-1339 -1348 0
-1339 -1349 0
-1339 -1350 0
-1339 -1351 0
-1339 -1352 0
-1339 -1353 0
-1339 -1354 0
-1339 -1355 0
-1339 -1356 0
-1339 -1357 0
-1339 -1358 0
-1339 -1359 0
-1339 -1360 0
-1339 -1361 0
-1339 -1362 0
-1339 -1363 0
-1339 -1364 0
-1339 -1365 0
-1339 -1366 0
-1339 -1367 0
-1339 -1368 0
-1339 -1369 0
-1339 -1370 0
-1339 -1371 0
-1339 -1372 0
-1339 -1373 0
-1339 -1374 0
-1339 -1375 0
-1339 -1376 0
-1339 -1377 0
-1339 -1378 0
-1339 -1379 0
-1340 -1341 0
-1340 -1342 0
-1340 -1343 0
-1340 -1344 0
-1340 -1345 0
-1340 -1346 0
-1340 -1347 0
-1340 -1348 0
-1340 -1349 0
-1340 -1350 0
-1340 -1351 0
-1340 -1352 0
-1340 -1353 0
-1340 -1354 0
-1340 -1355 0
-1340 -1356 0
-1340 -1357 0
-1340 -1358 0
-1340 -1359 0
-1340 -1360 0
-1340 -1361 0
-1340 -1362 0
-1340 -1363 0
-1340 -1364 0
-1340 -1365 0
-1340 -1366 0
-1340 -1367 0
-1340 -1368 0
-1340 -1369 0
-1340 -1370 0
-1340 -1371 0
-1340 -1372 0
-1340 -1373 0
-1340 -1374 0
-1340 -1375 0
-1340 -1376 0
-1340 -1377 0
-1340 -1378 0
-1340 -1379 0
-1341 -1342 0
-1341 -1343 0
-1341 -1344 0
-1341 -1345 0
-1341 -1346 0
-1341 -1347 0
-1341 -1348 0
-1341 -1349 0
-1341 -1350 0
-1341 -1351 0
-1341 -1352 0
-1341 -1353 0
-1341 -1354 0
-1341 -1355 0
-1341 -1356 0
-1341 -1357 0
-1341 -1358 0
-1341 -1359 0
-1341 -1360 0
-1341 -1361 0
-1341 -1362 0
-1341 -1363 0
-1341 -1364 0
-1341 -1365 0
-1341 -1366 0
-1341 -1367 0
-1341 -1368 0
-1341 -1369 0
-1341 -1370 0
-1341 -1371 0
-1341 -1372 0
-1341 -1373 0
-1341 -1374 0
-1341 -1375 0
-1341 -1376 0
-1341 -1377 0
-1341 -1378 0
-1341 -1379 0
-1342 -1343 0
-1342 -1344 0
-1342 -1345 0
-1342 -1346 0
-1342 -1347 0
-1342 -1348 0
-1342 -1349 0
-1342 -1350 0
-1342 -1351 0
-1342 -1352 0
-1342 -1353 0
-1342 -1354 0
-1342 -1355 0
-1342 -1356 0
-1342 -1357 0
-1342 -1358 0
-1342 -1359 0
-1342 -1360 0
-1342 -1361 0
-1342 -1362 0
-1342 -1363 0
-1342 -1364 0
-1342 -1365 0
-1342 -1366 0
-1342 -1367 0
-1342 -1368 0
-1342 -1369 0
-1342 -1370 0
-1342 -1371 0
-1342 -1372 0
-1342 -1373 0
-1342 -1374 0
-1342 -1375 0
-1342 -1376 0
-1342 -1377 0
-1342 -1378 0
-1342 -1379 0
-1343 -1344 0
-1343 -1345 0
-1343 -1346 0
-1343 -1347 0
-1343 -1348 0
-1343 -1349 0
-1343 -1350 0
-1343 -1351 0
-1343 -1352 0
-1343 -1353 0
-1343 -1354 0
-1343 -1355 0
-1343 -1356 0
-1343 -1357 0
-1343 -1358 0
-1343 -1359 0
-1343 -1360 0
-1343 -1361 0
-1343 -1362 0
-1343 -1363 0
-1343 -1364 0
-1343 -1365 0
-1343 -1366 0
-1343 -1367 0
-1343 -1368 0
-1343 -1369 0
-1343 -1370 0
-1343 -1371 0
-1343 -1372 0
-1343 -1373 0
-1343 -1374 0
-1343 -1375 0
-1343 -1376 0
-1343 -1377 0
-1343 -1378 0
-1343 -1379 0
-1344 -1345 0
-1344 -1346 0
-1344 -1347 0
-1344 -1348 0
-1344 -1349 0
-1344 -1350 0
-1344 -1351 0
-1344 -1352 0
-1344 -1353 0
-1344 -1354 0
-1344 -1355 0
-1344 -1356 0
-1344 -1357 0
-1344 -1358 0
-1344 -1359 0
-1344 -1360 0
-1344 -1361 0
-1344 -1362 0
-1344 -1363 0
-1344 -1364 0
-1344 -1365 0
-1344 -1366 0
-1344 -1367 0
-1344 -1368 0
-1344 -1369 0
-1344 -1370 0
-1344 -1371 0
-1344 -1372 0
-1344 -1373 0
-1344 -1374 0
-1344 -1375 0
-1344 -1376 0
-1344 -1377 0
-1344 -1378 0
-1344 -1379 0
-1345 -1346 0
-1345 -1347 0
-1345 -1348 0
-1345 -1349 0
-1345 -1350 0
-1345 -1351 0
-1345 -1352 0
-1345 -1353 0
-1345 -1354 0
-1345 -1355 0
-1345 -1356 0
-1345 -1357 0
-1345 -1358 0
-1345 -1359 0
-1345 -1360 0
-1345 -1361 0
-1345 -1362 0
-1345 -1363 0
-1345 -1364 0
-1345 -1365 0
-1345 -1366 0
-1345 -1367 0
-1345 -1368 0
-1345 -1369 0
-1345 -1370 0
-1345 -1371 0
-1345 -1372 0
-1345 -1373 0
-1345 -1374 0
-1345 -1375 0
-1345 -1376 0
-1345 -1377 0
-1345 -1378 0
-1345 -1379 0
-1346 -1347 0
-1346 -1348 0
-1346 -1349 0
-1346 -1350 0
-1346 -1351 0
-1346 -1352 0
-1346 -1353 0
-1346 -1354 0
-1346 -1355 0
-1346 -1356 0
-1346 -1357 0
-1346 -1358 0
-1346 -1359 0
-1346 -1360 0
-1346 -1361 0
-1346 -1362 0
-1346 -1363 0
-1346 -1364 0
-1346 -1365 0
-1346 -1366 0
-1346 -1367 0
-1346 -1368 0
-1346 -1369 0
-1346 -1370 0
-1346 -1371 0
-1346 -1372 0
-1346 -1373 0
-1346 -1374 0
-1346 -1375 0
-1346 -1376 0
-1346 -1377 0
-1346 -1378 0
-1346 -1379 0
-1347 -1348 0
-1347 -1349 0
-1347 -1350 0
-1347 -1351 0
-1347 -1352 0
-1347 -1353 0
-1347 -1354 0
-1347 -1355 0
-1347 -1356 0
-1347 -1357 0
-1347 -1358 0
-1347 -1359 0
-1347 -1360 0
-1347 -1361 0
-1347 -1362 0
-1347 -1363 0
-1347 -1364 0
-1347 -1365 0
-1347 -1366 0
-1347 -1367 0
-1347 -1368 0
-1347 -1369 0
-1347 -1370 0
-1347 -1371 0
-1347 -1372 0
-1347 -1373 0
-1347 -1374 0
-1347 -1375 0
-1347 -1376 0
-1347 -1377 0
-1347 -1378 0
-1347 -1379 0
-1348 -1349 0
-1348 -1350 0
-1348 -1351 0
-1348 -1352 0
-1348 -1353 0
-1348 -1354 0
-1348 -1355 0
-1348 -1356 0
-1348 -1357 0
-1348 -1358 0
-1348 -1359 0
-1348 -1360 0
-1348 -1361 0
-1348 -1362 0
-1348 -1363 0
-1348 -1364 0
-1348 -1365 0
-1348 -1366 0
-1348 -1367 0
-1348 -1368 0
-1348 -1369 0
-1348 -1370 0
-1348 -1371 0
-1348 -1372 0
-1348 -1373 0
-1348 -1374 0
-1348 -1375 0
-1348 -1376 0
-1348 -1377 0
-1348 -1378 0
-1348 -1379 0
-1349 -1350 0
-1349 -1351 0
-1349 -1352 0
-1349 -1353 0
-1349 -1354 0
-1349 -1355 0
-1349 -1356 0
-1349 -1357 0
-1349 -1358 0
-1349 -1359 0
-1349 -1360 0
-1349 -1361 0
-1349 -1362 0
-1349 -1363 0
-1349 -1364 0
-1349 -1365 0
-1349 -1366 0
-1349 -1367 0
-1349 -1368 0
-1349 -1369 0
-1349 -1370 0
-1349 -1371 0
-1349 -1372 0
-1349 -1373 0
-1349 -1374 0
-1349 -1375 0
-1349 -1376 0
-1349 -1377 0
-1349 -1378 0
-1349 -1379 0
-1350 -1351 0
-1350 -1352 0
-1350 -1353 0
-1350 -1354 0
-1350 -1355 0
-1350 -1356 0
-1350 -1357 0
-1350 -1358 0
-1350 -1359 0
-1350 -1360 0
-1350 -1361 0
-1350 -1362 0
-1350 -1363 0
-1350 -1364 0
-1350 -1365 0
-1350 -1366 0
-1350 -1367 0
-1350 -1368 0
-1350 -1369 0
-1350 -1370 0
-1350 -1371 0
-1350 -1372 0
-1350 -1373 0
-1350 -1374 0
-1350 -1375 0
-1350 -1376 0
-1350 -1377 0
-1350 -1378 0
-1350 -1379 0
-1351 -1352 0
-1351 -1353 0
-1351 -1354 0
-1351 -1355 0
-1351 -1356 0
-1351 -1357 0
-1351 -1358 0
-1351 -1359 0
-1351 -1360 0
-1351 -1361 0
-1351 -1362 0
-1351 -1363 0
-1351 -1364 0
-1351 -1365 0
-1351 -1366 0
-1351 -1367 0
-1351 -1368 0
-1351 -1369 0
-1351 -1370 0
-1351 -1371 0
-1351 -1372 0
-1351 -1373 0
-1351 -1374 0
-1351 -1375 0
-1351 -1376 0
-1351 -1377 0
-1351 -1378 0
-1351 -1379 0
-1352 -1353 0
-1352 -1354 0
-1352 -1355 0
-1352 -1356 0
-1352 -1357 0
-1352 -1358 0
-1352 -1359 0
-1352 -1360 0
-1352 -1361 0
-1352 -1362 0
-1352 -1363 0
-1352 -1364 0
-1352 -1365 0
-1352 -1366 0
-1352 -1367 0
-1352 -1368 0
-1352 -1369 0
-1352 -1370 0
-1352 -1371 0
-1352 -1372 0
-1352 -1373 0
-1352 -1374 0
-1352 -1375 0
-1352 -1376 0
-1352 -1377 0
-1352 -1378 0
-1352 -1379 0
-1353 -1354 0
-1353 -1355 0
-1353 -1356 0
-1353 -1357 0
-1353 -1358 0
-1353 -1359 0
-1353 -1360 0
-1353 -1361 0
-1353 -1362 0
-1353 -1363 0
-1353 -1364 0
-1353 -1365 0
-1353 -1366 0
-1353 -1367 0
-1353 -1368 0
-1353 -1369 0
-1353 -1370 0
-1353 -1371 0
-1353 -1372 0
-1353 -1373 0
-1353 -1374 0
-1353 -1375 0
-1353 -1376 0
-1353 -1377 0
-1353 -1378 0
-1353 -1379 0
-1354 -1355 0
-1354 -1356 0
-1354 -1357 0
-1354 -1358 0
-1354 -1359 0
-1354 -1360 0
-1354 -1361 0
-1354 -1362 0
-1354 -1363 0
-1354 -1364 0
-1354 -1365 0
-1354 -1366 0
-1354 -1367 0
-1354 -1368 0
-1354 -1369 0
-1354 -1370 0
-1354 -1371 0
-1354 -1372 0
-1354 -1373 0
-1354 -1374 0
-1354 -1375 0
-1354 -1376 0
-1354 -1377 0
-1354 -1378 0
-1354 -1379 0
-1355 -1356 0
-1355 -1357 0
-1355 -1358 0
-1355 -1359 0
-1355 -1360 0
-1355 -1361 0
-1355 -1362 0
-1355 -1363 0
-1355 -1364 0
-1355 -1365 0
-1355 -1366 0
-1355 -1367 0
-1355 -1368 0
-1355 -1369 0
-1355 -1370 0
-1355 -1371 0
-1355 -1372 0
-1355 -1373 0
-1355 -1374 0
-1355 -1375 0
-1355 -1376 0
-1355 -1377 0
-1355 -1378 0
-1355 -1379 0
-1356 -1357 0
-1356 -1358 0
-1356 -1359 0
-1356 -1360 0
-1356 -1361 0
-1356 -1362 0
-1356 -1363 0
-1356 -1364 0
-1356 -1365 0
-1356 -1366 0
-1356 -1367 0
-1356 -1368 0
-1356 -1369 0
-1356 -1370 0
-1356 -1371 0
-1356 -1372 0
-1356 -1373 0
-1356 -1374 0
-1356 -1375 0
-1356 -1376 0
-1356 -1377 0
-1356 -1378 0
-1356 -1379 0
-1357 -1358 0
-1357 -1359 0
-1357 -1360 0
-1357 -1361 0
-1357 -1362 0
-1357 -1363 0
-1357 -1364 0
-1357 -1365 0
-1357 -1366 0
-1357 -1367 0
-1357 -1368 0
-1357 -1369 0
-1357 -1370 0
-1357 -1371 0
-1357 -1372 0
-1357 -1373 0
-1357 -1374 0
-1357 -1375 0
-1357 -1376 0
-1357 -1377 0
-1357 -1378 0
-1357 -1379 0
-1358 -1359 0
-1358 -1360 0
-1358 -1361 0
-1358 -1362 0
-1358 -1363 0
-1358 -1364 0
-1358 -1365 0
-1358 -1366 0
-1358 -1367 0
-1358 -1368 0
-1358 -1369 0
-1358 -1370 0
-1358 -1371 0
-1358 -1372 0
-1358 -1373 0
-1358 -1374 0
-1358 -1375 0
-1358 -1376 0
-1358 -1377 0
-1358 -1378 0
-1358 -1379 0
-1359 -1360 0
-1359 -1361 0
-1359 -1362 0
-1359 -1363 0
-1359 -1364 0
-1359 -1365 0
-1359 -1366 0
-1359 -1367 0
-1359 -1368 0
-1359 -1369 0
-1359 -1370 0
-1359 -1371 0
-1359 -1372 0
-1359 -1373 0
-1359 -1374 0
-1359 -1375 0
-1359 -1376 0
-1359 -1377 0
-1359 -1378 0
-1359 -1379 0
-1360 -1361 0
-1360 -1362 0
-1360 -1363 0
-1360 -1364 0
-1360 -1365 0
-1360 -1366 0
-1360 -1367 0
-1360 -1368 0
-1360 -1369 0
-1360 -1370 0
-1360 -1371 0
-1360 -1372 0
-1360 -1373 0
-1360 -1374 0
-1360 -1375 0
-1360 -1376 0
-1360 -1377 0
-1360 -1378 0
-1360 -1379 0
-1361 -1362 0
-1361 -1363 0
-1361 -1364 0
-1361 -1365 0
-1361 -1366 0
-1361 -1367 0
-1361 -1368 0
-1361 -1369 0
-1361 -1370 0
-1361 -1371 0
-1361 -1372 0
-1361 -1373 0
-1361 -1374 0
-1361 -1375 0
-1361 -1376 0
-1361 -1377 0
-1361 -1378 0
-1361 -1379 0
-1362 -1363 0
-1362 -1364 0
-1362 -1365 0
-1362 -1366 0
-1362 -1367 0
-1362 -1368 0
-1362 -1369 0
-1362 -1370 0
-1362 -1371 0
-1362 -1372 0
-1362 -1373 0
-1362 -1374 0
-1362 -1375 0
-1362 -1376 0
-1362 -1377 0
-1362 -1378 0
-1362 -1379 0
-1363 -1364 0
-1363 -1365 0
-1363 -1366 0
-1363 -1367 0
-1363 -1368 0
-1363 -1369 0
-1363 -1370 0
-1363 -1371 0
-1363 -1372 0
-1363 -1373 0
-1363 -1374 0
-1363 -1375 0
-1363 -1376 0
-1363 -1377 0
-1363 -1378 0
-1363 -1379 0
-1364 -1365 0
-1364 -1366 0
-1364 -1367 0
-1364 -1368 0
-1364 -1369 0
-1364 -1370 0
-1364 -1371 0
-1364 -1372 0
-1364 -1373 0
-1364 -1374 0
-1364 -1375 0
-1364 -1376 0
-1364 -1377 0
-1364 -1378 0
-1364 -1379 0
-1365 -1366 0
-1365 -1367 0
-1365 -1368 0
-1365 -1369 0
-1365 -1370 0
-1365 -1371 0
-1365 -1372 0
-1365 -1373 0
-1365 -1374 0
-1365 -1375 0
-1365 -1376 0
-1365 -1377 0
-1365 -1378 0
-1365 -1379 0
-1366 -1367 0
-1366 -1368 0
-1366 -1369 0
-1366 -1370 0
-1366 -1371 0
-1366 -1372 0
-1366 -1373 0
-1366 -1374 0
-1366 -1375 0
-1366 -1376 0
-1366 -1377 0
-1366 -1378 0
-1366 -1379 0
-1367 -1368 0
-1367 -1369 0
-1367 -1370 0
-1367 -1371 0
-1367 -1372 0
-1367 -1373 0
-1367 -1374 0
-1367 -1375 0
-1367 -1376 0
-1367 -1377 0
-1367 -1378 0
-1367 -1379 0
-1368 -1369 0
-1368 -1370 0
-1368 -1371 0
-1368 -1372 0
-1368 -1373 0
-1368 -1374 0
-1368 -1375 0
-1368 -1376 0
-1368 -1377 0
-1368 -1378 0
-1368 -1379 0
-1369 -1370 0
-1369 -1371 0
-1369 -1372 0
-1369 -1373 0
-1369 -1374 0
-1369 -1375 0
-1369 -1376 0
-1369 -1377 0
-1369 -1378 0
-1369 -1379 0
-1370 -1371 0
-1370 -1372 0
-1370 -1373 0
-1370 -1374 0
-1370 -1375 0
-1370 -1376 0
-1370 -1377 0
-1370 -1378 0
-1370 -1379 0
-1371 -1372 0
-1371 -1373 0
-1371 -1374 0
-1371 -1375 0
-1371 -1376 0
-1371 -1377 0
-1371 -1378 0
-1371 -1379 0
-1372 -1373 0
-1372 -1374 0
-1372 -1375 0
-1372 -1376 0
-1372 -1377 0
-1372 -1378 0
-1372 -1379 0
-1373 -1374 0
-1373 -1375 0
-1373 -1376 0
-1373 -1377 0
-1373 -1378 0
-1373 -1379 0
-1374 -1375 0
-1374 -1376 0
-1374 -1377 0
-1374 -1378 0
-1374 -1379 0
-1375 -1376 0
-1375 -1377 0
-1375 -1378 0
-1375 -1379 0
-1376 -1377 0
-1376 -1378 0
-1376 -1379 0
-1377 -1378 0
-1377 -1379 0
-1378 -1379 0
-1296 38 0
-1296 186 0
-1296 -8 0
-1296 -9 0
-1296 -10 0
-1296 -11 0
-1296 -12 0
-1296 -26 208 0
-1296 -26 -91 0
-1296 -26 -115 0
-1296 -26 -139 0
-1296 -26 -1 -23 0
-1296 -27 209 0
-1296 -27 -92 0
-1296 -27 -116 0
-1296 -27 -140 0
-1296 -27 -1 -24 0
-1296 -28 210 0
-1296 -28 -93 0
-1296 -28 -117 0
-1296 -28 -141 0
-1296 -28 -1 -25 0
-1296 -29 0
-1297 38 0
-1297 187 0
-1297 -7 0
-1297 -9 0
-1297 -10 0
-1297 -11 0
-1297 -12 0
-1297 -26 208 0
-1297 -26 -95 0
-1297 -26 -119 0
-1297 -26 -143 0
-1297 -26 -2 -23 0
-1297 -27 209 0
-1297 -27 -96 0
-1297 -27 -120 0
-1297 -27 -144 0
-1297 -27 -2 -24 0
-1297 -28 210 0
-1297 -28 -97 0
-1297 -28 -121 0
-1297 -28 -145 0
-1297 -28 -2 -25 0
-1297 -29 0
-1298 38 0
-1298 188 0
-1298 -7 0
-1298 -8 0
-1298 -10 0
-1298 -11 0
-1298 -12 0
-1298 -26 208 0
-1298 -26 -99 0
-1298 -26 -123 0
-1298 -26 -147 0
-1298 -26 -3 -23 0
-1298 -27 209 0
-1298 -27 -100 0
-1298 -27 -124 0
-1298 -27 -148 0
-1298 -27 -3 -24 0
-1298 -28 210 0
-1298 -28 -101 0
-1298 -28 -125 0
-1298 -28 -149 0
-1298 -28 -3 -25 0
-1298 -29 0
-1299 38 0
-1299 189 0
-1299 -7 0
-1299 -8 0
-1299 -9 0
-1299 -11 0
-1299 -12 0
-1299 -26 208 0
-1299 -26 -103 0
-1299 -26 -127 0
-1299 -26 -151 0
-1299 -26 -4 -23 0
-1299 -27 209 0
-1299 -27 -104 0
-1299 -27 -128 0
-1299 -27 -152 0
-1299 -27 -4 -24 0
-1299 -28 210 0
-1299 -28 -105 0
-1299 -28 -129 0
-1299 -28 -153 0
-1299 -28 -4 -25 0
-1299 -29 0
-1300 38 0
-1300 190 0
-1300 -7 0
-1300 -8 0
-1300 -9 0
-1300 -10 0
-1300 -12 0
-1300 -26 208 0
-1300 -26 -107 0
-1300 -26 -131 0
-1300 -26 -155 0
-1300 -26 -5 -23 0
-1300 -27 209 0
-1300 -27 -108 0
-1300 -27 -132 0
-1300 -27 -156 0
-1300 -27 -5 -24 0
-1300 -28 210 0
-1300 -28 -109 0
-1300 -28 -133 0
-1300 -28 -157 0
-1300 -28 -5 -25 0
-1300 -29 0
-1301 38 0
-1301 191 0
-1301 -7 0
-1301 -8 0
-1301 -9 0
-1301 -10 0
-1301 -11 0
-1301 -26 208 0
-1301 -26 -111 0
-1301 -26 -135 0
-1301 -26 -159 0
-1301 -26 -6 -23 0
-1301 -27 209 0
-1301 -27 -112 0
-1301 -27 -136 0
-1301 -27 -160 0
-1301 -27 -6 -24 0
-1301 -28 210 0
-1301 -28 -113 0
-1301 -28 -137 0
-1301 -28 -161 0
-1301 -28 -6 -25 0
-1301 -29 0
-1302 38 0
-1302 186 0
-1302 -14 0
-1302 -15 0
-1302 -16 0
-1302 -17 0
-1302 -30 208 0
-1302 -30 -91 0
-1302 -30 -115 0
-1302 -30 -139 0
-1302 -30 -1 -23 0
-1302 -31 209 0
-1302 -31 -92 0
-1302 -31 -116 0
-1302 -31 -140 0
-1302 -31 -1 -24 0
-1302 -32 210 0
-1302 -32 -93 0
-1302 -32 -117 0
-1302 -32 -141 0
-1302 -32 -1 -25 0
-1302 -33 0
-1303 38 0
-1303 187 0
-1303 -15 0
-1303 -16 0
-1303 -17 0
-1303 -30 208 0
-1303 -30 -95 0
-1303 -30 -119 0
-1303 -30 -143 0
-1303 -30 -2 -23 0
-1303 -31 209 0
-1303 -31 -96 0
-1303 -31 -120 0
-1303 -31 -144 0
-1303 -31 -2 -24 0
-1303 -32 210 0
-1303 -32 -97 0
-1303 -32 -121 0
-1303 -32 -145 0
-1303 -32 -2 -25 0
-1303 -33 0
-1304 38 0
-1304 188 0
-1304 -13 0
-1304 -16 0
-1304 -17 0
-1304 -30 208 0
-1304 -30 -99 0
-1304 -30 -123 0
-1304 -30 -147 0
-1304 -30 -3 -23 0
-1304 -31 209 0
-1304 -31 -100 0
-1304 -31 -124 0
-1304 -31 -148 0
-1304 -31 -3 -24 0
-1304 -32 210 0
-1304 -32 -101 0
-1304 -32 -125 0
-1304 -32 -149 0
-1304 -32 -3 -25 0
-1304 -33 0
-1305 38 0
-1305 189 0
-1305 -13 0
-1305 -14 0
-1305 -17 0
-1305 -30 208 0
-1305 -30 -103 0
-1305 -30 -127 0
-1305 -30 -151 0
-1305 -30 -4 -23 0
-1305 -31 209 0
-1305 -31 -104 0
-1305 -31 -128 0
-1305 -31 -152 0
-1305 -31 -4 -24 0
-1305 -32 210 0
-1305 -32 -105 0
-1305 -32 -129 0
-1305 -32 -153 0
-1305 -32 -4 -25 0
-1305 -33 0
-1306 38 0
-1306 190 0
-1306 -13 0
-1306 -14 0
-1306 -15 0
-1306 -30 208 0
-1306 -30 -107 0
-1306 -30 -131 0
-1306 -30 -155 0
-1306 -30 -5 -23 0
-1306 -31 209 0
-1306 -31 -108 0
-1306 -31 -132 0
-1306 -31 -156 0
-1306 -31 -5 -24 0
-1306 -32 210 0
-1306 -32 -109 0
-1306 -32 -133 0
-1306 -32 -157 0
-1306 -32 -5 -25 0
-1306 -33 0
-1307 38 0
-1307 191 0
-1307 -13 0
-1307 -14 0
-1307 -15 0
-1307 -16 0
-1307 -30 208 0
-1307 -30 -111 0
-1307 -30 -135 0
-1307 -30 -159 0
-1307 -30 -6 -23 0
-1307 -31 209 0
-1307 -31 -112 0
-1307 -31 -136 0
-1307 -31 -160 0
-1307 -31 -6 -24 0
-1307 -32 210 0
-1307 -32 -113 0
-1307 -32 -137 0
-1307 -32 -161 0
-1307 -32 -6 -25 0
-1307 -33 0
-1308 38 0
-1308 186 0
-1308 -19 0
-1308 -20 0
-1308 -21 0
-1308 -34 208 0
-1308 -34 -91 0
-1308 -34 -115 0
-1308 -34 -139 0
-1308 -34 -1 -23 0
-1308 -35 209 0
-1308 -35 -92 0
-1308 -35 -116 0
-1308 -35 -140 0
-1308 -35 -1 -24 0
-1308 -36 210 0
-1308 -36 -93 0
-1308 -36 -117 0
-1308 -36 -141 0
-1308 -36 -1 -25 0
-1308 -37 0
-1309 38 0
-1309 187 0
-1309 -20 0
-1309 -21 0
-1309 -34 208 0
-1309 -34 -95 0
-1309 -34 -119 0
-1309 -34 -143 0
-1309 -34 -2 -23 0
-1309 -35 209 0
-1309 -35 -96 0
-1309 -35 -120 0
-1309 -35 -144 0
-1309 -35 -2 -24 0
-1309 -36 210 0
-1309 -36 -97 0
-1309 -36 -121 0
-1309 -36 -145 0
-1309 -36 -2 -25 0
-1309 -37 0
-1310 38 0
-1310 188 0
-1310 -21 0
-1310 -34 208 0
-1310 -34 -99 0
-1310 -34 -123 0
-1310 -34 -147 0
-1310 -34 -3 -23 0
-1310 -35 209 0
-1310 -35 -100 0
-1310 -35 -124 0
-1310 -35 -148 0
-1310 -35 -3 -24 0
-1310 -36 210 0
-1310 -36 -101 0
-1310 -36 -125 0
-1310 -36 -149 0
-1310 -36 -3 -25 0
-1310 -37 0
-1311 38 0
-1311 189 0
-1311 -18 0
-1311 -34 208 0
-1311 -34 -103 0
-1311 -34 -127 0
-1311 -34 -151 0
-1311 -34 -4 -23 0
-1311 -35 209 0
-1311 -35 -104 0
-1311 -35 -128 0
-1311 -35 -152 0
-1311 -35 -4 -24 0
-1311 -36 210 0
-1311 -36 -105 0
-1311 -36 -129 0
-1311 -36 -153 0
-1311 -36 -4 -25 0
-1311 -37 0
-1312 38 0
-1312 190 0
-1312 -18 0
-1312 -19 0
-1312 -34 208 0
-1312 -34 -107 0
-1312 -34 -131 0
-1312 -34 -155 0
-1312 -34 -5 -23 0
-1312 -35 209 0
-1312 -35 -108 0
-1312 -35 -132 0
-1312 -35 -156 0
-1312 -35 -5 -24 0
-1312 -36 210 0
-1312 -36 -109 0
-1312 -36 -133 0
-1312 -36 -157 0
-1312 -36 -5 -25 0
-1312 -37 0
-1313 38 0
-1313 191 0
-1313 -18 0
-1313 -19 0
-1313 -20 0
-1313 -34 208 0
-1313 -34 -111 0
-1313 -34 -135 0
-1313 -34 -159 0
-1313 -34 -6 -23 0
-1313 -35 209 0
-1313 -35 -112 0
-1313 -35 -136 0
-1313 -35 -160 0
-1313 -35 -6 -24 0
-1313 -36 210 0
-1313 -36 -113 0
-1313 -36 -137 0
-1313 -36 -161 0
-1313 -36 -6 -25 0
-1313 -37 0
-1314 38 0
-1314 186 0
-1314 207 0
-1314 -90 0
-1314 -114 0
-1314 -138 0
-1314 -1 -22 0
-1315 38 0
-1315 187 0
-1315 207 0
-1315 -94 0
-1315 -118 0
-1315 -142 0
-1315 -2 -22 0
-1316 38 0
-1316 188 0
-1316 207 0
-1316 -98 0
-1316 -122 0
-1316 -146 0
-1316 -3 -22 0
-1317 38 0
-1317 189 0
-1317 207 0
-1317 -102 0
-1317 -126 0
-1317 -150 0
-1317 -4 -22 0
-1318 38 0
-1318 190 0
-1318 207 0
-1318 -106 0
-1318 -130 0
-1318 -154 0
-1318 -5 -22 0
-1319 38 0
-1319 191 0
-1319 207 0
-1319 -110 0
-1319 -134 0
-1319 -158 0
-1319 -6 -22 0
-1320 39 0
-1320 192 0
-1320 -2 0
-1320 -3 0
-1320 -4 0
-1320 -5 0
-1320 -6 0
-1320 -22 212 0
-1320 -22 -67 0
-1320 -22 -115 0
-1320 -22 -139 0
-1320 -22 -7 -27 0
-1320 -23 213 0
-1320 -23 -68 0
-1320 -23 -116 0
-1320 -23 -140 0
-1320 -23 -7 -28 0
-1320 -24 214 0
-1320 -24 -69 0
-1320 -24 -117 0
-1320 -24 -141 0
-1320 -24 -7 -29 0
-1320 -25 0
-1321 39 0
-1321 193 0
-1321 -1 0
-1321 -3 0
-1321 -4 0
-1321 -5 0
-1321 -6 0
-1321 -22 212 0
-1321 -22 -71 0
-1321 -22 -119 0
-1321 -22 -143 0
-1321 -22 -8 -27 0
-1321 -23 213 0
-1321 -23 -72 0
-1321 -23 -120 0
-1321 -23 -144 0
-1321 -23 -8 -28 0
-1321 -24 214 0
-1321 -24 -73 0
-1321 -24 -121 0
-1321 -24 -145 0
-1321 -24 -8 -29 0
-1321 -25 0
-1322 39 0
-1322 194 0
-1322 -1 0
-1322 -2 0
-1322 -4 0
-1322 -5 0
-1322 -6 0
-1322 -22 212 0
-1322 -22 -75 0
-1322 -22 -123 0
-1322 -22 -147 0
-1322 -22 -9 -27 0
-1322 -23 213 0
-1322 -23 -76 0
-1322 -23 -124 0
-1322 -23 -148 0
-1322 -23 -9 -28 0
-1322 -24 214 0
-1322 -24 -77 0
-1322 -24 -125 0
-1322 -24 -149 0
-1322 -24 -9 -29 0
-1322 -25 0
-1323 39 0
-1323 195 0
-1323 -1 0
-1323 -2 0
-1323 -3 0
-1323 -5 0
-1323 -6 0
-1323 -22 212 0
-1323 -22 -79 0
-1323 -22 -127 0
-1323 -22 -151 0
-1323 -22 -10 -27 0
-1323 -23 213 0
-1323 -23 -80 0
-1323 -23 -128 0
-1323 -23 -152 0
-1323 -23 -10 -28 0
-1323 -24 214 0
-1323 -24 -81 0
-1323 -24 -129 0
-1323 -24 -153 0
-1323 -24 -10 -29 0
-1323 -25 0
-1324 39 0
-1324 196 0
-1324 -1 0
-1324 -2 0
-1324 -3 0
-1324 -4 0
-1324 -6 0
-1324 -22 212 0
-1324 -22 -83 0
-1324 -22 -131 0
-1324 -22 -155 0
-1324 -22 -11 -27 0
-1324 -23 213 0
-1324 -23 -84 0
-1324 -23 -132 0
-1324 -23 -156 0
-1324 -23 -11 -28 0
-1324 -24 214 0
-1324 -24 -85 0
-1324 -24 -133 0
-1324 -24 -157 0
-1324 -24 -11 -29 0
-1324 -25 0
-1325 39 0
-1325 197 0
-1325 -1 0
-1325 -2 0
-1325 -3 0
-1325 -4 0
-1325 -5 0
-1325 -22 212 0
-1325 -22 -87 0
-1325 -22 -135 0
-1325 -22 -159 0
-1325 -22 -12 -27 0
-1325 -23 213 0
-1325 -23 -88 0
-1325 -23 -136 0
-1325 -23 -160 0
-1325 -23 -12 -28 0
-1325 -24 214 0
-1325 -24 -89 0
-1325 -24 -137 0
-1325 -24 -161 0
-1325 -24 -12 -29 0
-1325 -25 0
-1326 39 0
-1326 192 0
-1326 -14 0
-1326 -15 0
-1326 -16 0
-1326 -17 0
-1326 -30 212 0
-1326 -30 -67 0
-1326 -30 -115 0
-1326 -30 -139 0
-1326 -30 -7 -27 0
-1326 -31 213 0
-1326 -31 -68 0
-1326 -31 -116 0
-1326 -31 -140 0
-1326 -31 -7 -28 0
-1326 -32 214 0
-1326 -32 -69 0
-1326 -32 -117 0
-1326 -32 -141 0
-1326 -32 -7 -29 0
-1326 -33 0
-1327 39 0
-1327 193 0
-1327 -15 0
-1327 -16 0
-1327 -17 0
-1327 -30 212 0
-1327 -30 -71 0
-1327 -30 -119 0
-1327 -30 -143 0
-1327 -30 -8 -27 0
-1327 -31 213 0
-1327 -31 -72 0
-1327 -31 -120 0
-1327 -31 -144 0
-1327 -31 -8 -28 0
-1327 -32 214 0
-1327 -32 -73 0
-1327 -32 -121 0
-1327 -32 -145 0
-1327 -32 -8 -29 0
-1327 -33 0
-1328 39 0
-1328 194 0
-1328 -13 0
-1328 -16 0
-1328 -17 0
-1328 -30 212 0
-1328 -30 -75 0
-1328 -30 -123 0
-1328 -30 -147 0
-1328 -30 -9 -27 0
-1328 -31 213 0
-1328 -31 -76 0
-1328 -31 -124 0
-1328 -31 -148 0
-1328 -31 -9 -28 0
-1328 -32 214 0
-1328 -32 -77 0
-1328 -32 -125 0
-1328 -32 -149 0
-1328 -32 -9 -29 0
-1328 -33 0
-1329 39 0
-1329 195 0
-1329 -13 0
-1329 -14 0
-1329 -17 0
-1329 -30 212 0
-1329 -30 -79 0
-1329 -30 -127 0
-1329 -30 -151 0
-1329 -30 -10 -27 0
-1329 -31 213 0
-1329 -31 -80 0
-1329 -31 -128 0
-1329 -31 -152 0
-1329 -31 -10 -28 0
-1329 -32 214 0
-1329 -32 -81 0
-1329 -32 -129 0
-1329 -32 -153 0
-1329 -32 -10 -29 0
-1329 -33 0
-1330 39 0
-1330 196 0
-1330 -13 0
-1330 -14 0
-1330 -15 0
-1330 -30 212 0
-1330 -30 -83 0
-1330 -30 -131 0
-1330 -30 -155 0
-1330 -30 -11 -27 0
-1330 -31 213 0
-1330 -31 -84 0
-1330 -31 -132 0
-1330 -31 -156 0
-1330 -31 -11 -28 0
-1330 -32 214 0
-1330 -32 -85 0
-1330 -32 -133 0
-1330 -32 -157 0
-1330 -32 -11 -29 0
-1330 -33 0
-1331 39 0
-1331 197 0
-1331 -13 0
-1331 -14 0
-1331 -15 0
-1331 -16 0
-1331 -30 212 0
-1331 -30 -87 0
-1331 -30 -135 0
-1331 -30 -159 0
-1331 -30 -12 -27 0
-1331 -31 213 0
-1331 -31 -88 0
-1331 -31 -136 0
-1331 -31 -160 0
-1331 -31 -12 -28 0
-1331 -32 214 0
-1331 -32 -89 0
-1331 -32 -137 0
-1331 -32 -161 0
-1331 -32 -12 -29 0
-1331 -33 0
-1332 39 0
-1332 192 0
-1332 -19 0
-1332 -20 0
-1332 -21 0
-1332 -34 212 0
-1332 -34 -67 0
-1332 -34 -115 0
-1332 -34 -139 0
-1332 -34 -7 -27 0
-1332 -35 213 0
-1332 -35 -68 0
-1332 -35 -116 0
-1332 -35 -140 0
-1332 -35 -7 -28 0
-1332 -36 214 0
-1332 -36 -69 0
-1332 -36 -117 0
-1332 -36 -141 0
-1332 -36 -7 -29 0
-1332 -37 0
-1333 39 0
-1333 193 0
-1333 -20 0
-1333 -21 0
-1333 -34 212 0
-1333 -34 -71 0
-1333 -34 -119 0
-1333 -34 -143 0
-1333 -34 -8 -27 0
-1333 -35 213 0
-1333 -35 -72 0
-1333 -35 -120 0
-1333 -35 -144 0
-1333 -35 -8 -28 0
-1333 -36 214 0
-1333 -36 -73 0
-1333 -36 -121 0
-1333 -36 -145 0
-1333 -36 -8 -29 0
-1333 -37 0
-1334 39 0
-1334 194 0
-1334 -21 0
-1334 -34 212 0
-1334 -34 -75 0
-1334 -34 -123 0
-1334 -34 -147 0
-1334 -34 -9 -27 0
-1334 -35 213 0
-1334 -35 -76 0
-1334 -35 -124 0
-1334 -35 -148 0
-1334 -35 -9 -28 0
-1334 -36 214 0
-1334 -36 -77 0
-1334 -36 -125 0
-1334 -36 -149 0
-1334 -36 -9 -29 0
-1334 -37 0
-1335 39 0
-1335 195 0
-1335 -18 0
-1335 -34 212 0
-1335 -34 -79 0
-1335 -34 -127 0
-1335 -34 -151 0
-1335 -34 -10 -27 0
-1335 -35 213 0
-1335 -35 -80 0
-1335 -35 -128 0
-1335 -35 -152 0
-1335 -35 -10 -28 0
-1335 -36 214 0
-1335 -36 -81 0
-1335 -36 -129 0
-1335 -36 -153 0
-1335 -36 -10 -29 0
-1335 -37 0
-1336 39 0
-1336 196 0
-1336 -18 0
-1336 -19 0
-1336 -34 212 0
-1336 -34 -83 0
-1336 -34 -131 0
-1336 -34 -155 0
-1336 -34 -11 -27 0
-1336 -35 213 0
-1336 -35 -84 0
-1336 -35 -132 0
-1336 -35 -156 0
-1336 -35 -11 -28 0
-1336 -36 214 0
-1336 -36 -85 0
-1336 -36 -133 0
-1336 -36 -157 0
-1336 -36 -11 -29 0
-1336 -37 0
-1337 39 0
-1337 197 0
-1337 -18 0
-1337 -19 0
-1337 -20 0
-1337 -34 212 0
-1337 -34 -87 0
-1337 -34 -135 0
-1337 -34 -159 0
-1337 -34 -12 -27 0
-1337 -35 213 0
-1337 -35 -88 0
-1337 -35 -136 0
-1337 -35 -160 0
-1337 -35 -12 -28 0
-1337 -36 214 0
-1337 -36 -89 0
-1337 -36 -137 0
-1337 -36 -161 0
-1337 -36 -12 -29 0
-1337 -37 0
-1338 39 0
-1338 192 0
-1338 211 0
-1338 -66 0
-1338 -114 0
-1338 -138 0
-1338 -7 -26 0
-1339 39 0
-1339 193 0
-1339 211 0
-1339 -70 0
-1339 -118 0
-1339 -142 0
-1339 -8 -26 0
-1340 39 0
-1340 194 0
-1340 211 0
-1340 -74 0
-1340 -122 0
-1340 -146 0
-1340 -9 -26 0
-1341 39 0
-1341 195 0
-1341 211 0
-1341 -78 0
-1341 -126 0
-1341 -150 0
-1341 -10 -26 0
-1342 39 0
-1342 196 0
-1342 211 0
-1342 -82 0
-1342 -130 0
-1342 -154 0
-1342 -11 -26 0
-1343 39 0
-1343 197 0
-1343 211 0
-1343 -86 0
-1343 -134 0
-1343 -158 0
-1343 -12 -26 0
-1344 40 0
-1344 198 0
-1344 -3 0
-1344 -4 0
-1344 -5 0
-1344 -6 0
-1344 -22 216 0
-1344 -22 -67 0
-1344 -22 -71 0
-1344 -22 -91 0
-1344 -22 -95 0
-1344 -22 -139 0
-1344 -22 -143 0
-1344 -22 -13 -31 0
-1344 -23 217 0
-1344 -23 -68 0
-1344 -23 -72 0
-1344 -23 -92 0
-1344 -23 -96 0
-1344 -23 -140 0
-1344 -23 -144 0
-1344 -23 -13 -32 0
-1344 -24 218 0
-1344 -24 -69 0
-1344 -24 -73 0
-1344 -24 -93 0
-1344 -24 -97 0
-1344 -24 -141 0
-1344 -24 -145 0
-1344 -24 -13 -33 0
-1344 -25 0
-1345 40 0
-1345 199 0
-1345 -1 0
-1345 -4 0
-1345 -5 0
-1345 -6 0
-1345 -22 216 0
-1345 -22 -71 0
-1345 -22 -75 0
-1345 -22 -95 0
-1345 -22 -99 0
-1345 -22 -143 0
-1345 -22 -147 0
-1345 -22 -14 -31 0
-1345 -23 217 0
-1345 -23 -72 0
-1345 -23 -76 0
-1345 -23 -96 0
-1345 -23 -100 0
-1345 -23 -144 0
-1345 -23 -148 0
-1345 -23 -14 -32 0
-1345 -24 218 0
-1345 -24 -73 0
-1345 -24 -77 0
-1345 -24 -97 0
-1345 -24 -101 0
-1345 -24 -145 0
-1345 -24 -149 0
-1345 -24 -14 -33 0
-1345 -25 0
-1346 40 0
-1346 200 0
-1346 -1 0
-1346 -2 0
-1346 -5 0
-1346 -6 0
-1346 -22 216 0
-1346 -22 -75 0
-1346 -22 -79 0
-1346 -22 -99 0
-1346 -22 -103 0
-1346 -22 -147 0
-1346 -22 -151 0
-1346 -22 -15 -31 0
-1346 -23 217 0
-1346 -23 -76 0
-1346 -23 -80 0
-1346 -23 -100 0
-1346 -23 -104 0
-1346 -23 -148 0
-1346 -23 -152 0
-1346 -23 -15 -32 0
-1346 -24 218 0
-1346 -24 -77 0
-1346 -24 -81 0
-1346 -24 -101 0
-1346 -24 -105 0
-1346 -24 -149 0
-1346 -24 -153 0
-1346 -24 -15 -33 0
-1346 -25 0
-1347 40 0
-1347 201 0
-1347 -1 0
-1347 -2 0
-1347 -3 0
-1347 -6 0
-1347 -22 216 0
-1347 -22 -79 0
-1347 -22 -83 0
-1347 -22 -103 0
-1347 -22 -107 0
-1347 -22 -151 0
-1347 -22 -155 0
-1347 -22 -16 -31 0
-1347 -23 217 0
-1347 -23 -80 0
-1347 -23 -84 0
-1347 -23 -104 0
-1347 -23 -108 0
-1347 -23 -152 0
-1347 -23 -156 0
-1347 -23 -16 -32 0
-1347 -24 218 0
-1347 -24 -81 0
-1347 -24 -85 0
-1347 -24 -105 0
-1347 -24 -109 0
-1347 -24 -153 0
-1347 -24 -157 0
-1347 -24 -16 -33 0
-1347 -25 0
-1348 40 0
-1348 202 0
-1348 -1 0
-1348 -2 0
-1348 -3 0
-1348 -4 0
-1348 -22 216 0
-1348 -22 -83 0
-1348 -22 -87 0
-1348 -22 -107 0
-1348 -22 -111 0
-1348 -22 -155 0
-1348 -22 -159 0
-1348 -22 -17 -31 0
-1348 -23 217 0
-1348 -23 -84 0
-1348 -23 -88 0
-1348 -23 -108 0
-1348 -23 -112 0
-1348 -23 -156 0
-1348 -23 -160 0
-1348 -23 -17 -32 0
-1348 -24 218 0
-1348 -24 -85 0
-1348 -24 -89 0
-1348 -24 -109 0
-1348 -24 -113 0
-1348 -24 -157 0
-1348 -24 -161 0
-1348 -24 -17 -33 0
-1348 -25 0
-1349 40 0
-1349 198 0
-1349 -9 0
-1349 -10 0
-1349 -11 0
-1349 -12 0
-1349 -26 216 0
-1349 -26 -67 0
-1349 -26 -71 0
-1349 -26 -91 0
-1349 -26 -95 0
-1349 -26 -139 0
-1349 -26 -143 0
-1349 -26 -13 -31 0
-1349 -27 217 0
-1349 -27 -68 0
-1349 -27 -72 0
-1349 -27 -92 0
-1349 -27 -96 0
-1349 -27 -140 0
-1349 -27 -144 0
-1349 -27 -13 -32 0
-1349 -28 218 0
-1349 -28 -69 0
-1349 -28 -73 0
-1349 -28 -93 0
-1349 -28 -97 0
-1349 -28 -141 0
-1349 -28 -145 0
-1349 -28 -13 -33 0
-1349 -29 0
-1350 40 0
-1350 199 0
-1350 -7 0
-1350 -10 0
-1350 -11 0
-1350 -12 0
-1350 -26 216 0
-1350 -26 -71 0
-1350 -26 -75 0
-1350 -26 -95 0
-1350 -26 -99 0
-1350 -26 -143 0
-1350 -26 -147 0
-1350 -26 -14 -31 0
-1350 -27 217 0
-1350 -27 -72 0
-1350 -27 -76 0
-1350 -27 -96 0
-1350 -27 -100 0
-1350 -27 -144 0
-1350 -27 -148 0
-1350 -27 -14 -32 0
-1350 -28 218 0
-1350 -28 -73 0
-1350 -28 -77 0
-1350 -28 -97 0
-1350 -28 -101 0
-1350 -28 -145 0
-1350 -28 -149 0
-1350 -28 -14 -33 0
-1350 -29 0
-1351 40 0
-1351 200 0
-1351 -7 0
-1351 -8 0
-1351 -11 0
-1351 -12 0
-1351 -26 216 0
-1351 -26 -75 0
-1351 -26 -79 0
-1351 -26 -99 0
-1351 -26 -103 0
-1351 -26 -147 0
-1351 -26 -151 0
-1351 -26 -15 -31 0
-1351 -27 217 0
-1351 -27 -76 0
-1351 -27 -80 0
-1351 -27 -100 0
-1351 -27 -104 0
-1351 -27 -148 0
-1351 -27 -152 0
-1351 -27 -15 -32 0
-1351 -28 218 0
-1351 -28 -77 0
-1351 -28 -81 0
-1351 -28 -101 0
-1351 -28 -105 0
-1351 -28 -149 0
-1351 -28 -153 0
-1351 -28 -15 -33 0
-1351 -29 0
-1352 40 0
-1352 201 0
-1352 -7 0
-1352 -8 0
-1352 -9 0
-1352 -12 0
-1352 -26 216 0
-1352 -26 -79 0
-1352 -26 -83 0
-1352 -26 -103 0
-1352 -26 -107 0
-1352 -26 -151 0
-1352 -26 -155 0
-1352 -26 -16 -31 0
-1352 -27 217 0
-1352 -27 -80 0
-1352 -27 -84 0
-1352 -27 -104 0
-1352 -27 -108 0
-1352 -27 -152 0
-1352 -27 -156 0
-1352 -27 -16 -32 0
-1352 -28 218 0
-1352 -28 -81 0
-1352 -28 -85 0
-1352 -28 -105 0
-1352 -28 -109 0
-1352 -28 -153 0
-1352 -28 -157 0
-1352 -28 -16 -33 0
-1352 -29 0
-1353 40 0
-1353 202 0
-1353 -7 0
-1353 -8 0
-1353 -9 0
-1353 -10 0
-1353 -26 216 0
-1353 -26 -83 0
-1353 -26 -87 0
-1353 -26 -107 0
-1353 -26 -111 0
-1353 -26 -155 0
-1353 -26 -159 0
-1353 -26 -17 -31 0
-1353 -27 217 0
-1353 -27 -84 0
-1353 -27 -88 0
-1353 -27 -108 0
-1353 -27 -112 0
-1353 -27 -156 0
-1353 -27 -160 0
-1353 -27 -17 -32 0
-1353 -28 218 0
-1353 -28 -85 0
-1353 -28 -89 0
-1353 -28 -109 0
-1353 -28 -113 0
-1353 -28 -157 0
-1353 -28 -161 0
-1353 -28 -17 -33 0
-1353 -29 0
-1354 40 0
-1354 198 0
-1354 -20 0
-1354 -21 0
-1354 -34 216 0
-1354 -34 -67 0
-1354 -34 -71 0
-1354 -34 -91 0
-1354 -34 -95 0
-1354 -34 -139 0
-1354 -34 -143 0
-1354 -34 -13 -31 0
-1354 -35 217 0
-1354 -35 -68 0
-1354 -35 -72 0
-1354 -35 -92 0
-1354 -35 -96 0
-1354 -35 -140 0
-1354 -35 -144 0
-1354 -35 -13 -32 0
-1354 -36 218 0
-1354 -36 -69 0
-1354 -36 -73 0
-1354 -36 -93 0
-1354 -36 -97 0
-1354 -36 -141 0
-1354 -36 -145 0
-1354 -36 -13 -33 0
-1354 -37 0
-1355 40 0
-1355 199 0
-1355 -21 0
-1355 -34 216 0
-1355 -34 -71 0
-1355 -34 -75 0
-1355 -34 -95 0
-1355 -34 -99 0
-1355 -34 -143 0
-1355 -34 -147 0
-1355 -34 -14 -31 0
-1355 -35 217 0
-1355 -35 -72 0
-1355 -35 -76 0
-1355 -35 -96 0
-1355 -35 -100 0
-1355 -35 -144 0
-1355 -35 -148 0
-1355 -35 -14 -32 0
-1355 -36 218 0
-1355 -36 -73 0
-1355 -36 -77 0
-1355 -36 -97 0
-1355 -36 -101 0
-1355 -36 -145 0
-1355 -36 -149 0
-1355 -36 -14 -33 0
-1355 -37 0
-1356 40 0
-1356 200 0
-1356 -34 216 0
-1356 -34 -75 0
-1356 -34 -79 0
-1356 -34 -99 0
-1356 -34 -103 0
-1356 -34 -147 0
-1356 -34 -151 0
-1356 -34 -15 -31 0
-1356 -35 217 0
-1356 -35 -76 0
-1356 -35 -80 0
-1356 -35 -100 0
-1356 -35 -104 0
-1356 -35 -148 0
-1356 -35 -152 0
-1356 -35 -15 -32 0
-1356 -36 218 0
-1356 -36 -77 0
-1356 -36 -81 0
-1356 -36 -101 0
-1356 -36 -105 0
-1356 -36 -149 0
-1356 -36 -153 0
-1356 -36 -15 -33 0
-1356 -37 0
-1357 40 0
-1357 201 0
-1357 -18 0
-1357 -34 216 0
-1357 -34 -79 0
-1357 -34 -83 0
-1357 -34 -103 0
-1357 -34 -107 0
-1357 -34 -151 0
-1357 -34 -155 0
-1357 -34 -16 -31 0
-1357 -35 217 0
-1357 -35 -80 0
-1357 -35 -84 0
-1357 -35 -104 0
-1357 -35 -108 0
-1357 -35 -152 0
-1357 -35 -156 0
-1357 -35 -16 -32 0
-1357 -36 218 0
-1357 -36 -81 0
-1357 -36 -85 0
-1357 -36 -105 0
-1357 -36 -109 0
-1357 -36 -153 0
-1357 -36 -157 0
-1357 -36 -16 -33 0
-1357 -37 0
-1358 40 0
-1358 202 0
-1358 -18 0
-1358 -19 0
-1358 -34 216 0
-1358 -34 -83 0
-1358 -34 -87 0
-1358 -34 -107 0
-1358 -34 -111 0
-1358 -34 -155 0
-1358 -34 -159 0
-1358 -34 -17 -31 0
-1358 -35 217 0
-1358 -35 -84 0
-1358 -35 -88 0
-1358 -35 -108 0
-1358 -35 -112 0
-1358 -35 -156 0
-1358 -35 -160 0
-1358 -35 -17 -32 0
-1358 -36 218 0
-1358 -36 -85 0
-1358 -36 -89 0
-1358 -36 -109 0
-1358 -36 -113 0
-1358 -36 -157 0
-1358 -36 -161 0
-1358 -36 -17 -33 0
-1358 -37 0
-1359 40 0
-1359 198 0
-1359 215 0
-1359 -66 0
-1359 -70 0
-1359 -90 0
-1359 -94 0
-1359 -138 0
-1359 -142 0
-1359 -13 -30 0
-1360 40 0
-1360 199 0
-1360 215 0
-1360 -70 0
-1360 -74 0
-1360 -94 0
-1360 -98 0
-1360 -142 0
-1360 -146 0
-1360 -14 -30 0
-1361 40 0
-1361 200 0
-1361 215 0
-1361 -74 0
-1361 -78 0
-1361 -98 0
-1361 -102 0
-1361 -146 0
-1361 -150 0
-1361 -15 -30 0
-1362 40 0
-1362 201 0
-1362 215 0
-1362 -78 0
-1362 -82 0
-1362 -102 0
-1362 -106 0
-1362 -150 0
-1362 -154 0
-1362 -16 -30 0
-1363 40 0
-1363 202 0
-1363 215 0
-1363 -82 0
-1363 -86 0
-1363 -106 0
-1363 -110 0
-1363 -154 0
-1363 -158 0
-1363 -17 -30 0
-1364 41 0
-1364 203 0
-1364 -4 0
-1364 -5 0
-1364 -6 0
-1364 -22 220 0
-1364 -22 -67 0
-1364 -22 -71 0
-1364 -22 -75 0
-1364 -22 -91 0
-1364 -22 -95 0
-1364 -22 -99 0
-1364 -22 -115 0
-1364 -22 -119 0
-1364 -22 -123 0
-1364 -22 -18 -35 0
-1364 -23 221 0
-1364 -23 -68 0
-1364 -23 -72 0
-1364 -23 -76 0
-1364 -23 -92 0
-1364 -23 -96 0
-1364 -23 -100 0
-1364 -23 -116 0
-1364 -23 -120 0
-1364 -23 -124 0
-1364 -23 -18 -36 0
-1364 -24 222 0
-1364 -24 -69 0
-1364 -24 -73 0
-1364 -24 -77 0
-1364 -24 -93 0
-1364 -24 -97 0
-1364 -24 -101 0
-1364 -24 -117 0
-1364 -24 -121 0
-1364 -24 -125 0
-1364 -24 -18 -37 0
-1364 -25 0
-1365 41 0
-1365 204 0
-1365 -1 0
-1365 -5 0
-1365 -6 0
-1365 -22 220 0
-1365 -22 -71 0
-1365 -22 -75 0
-1365 -22 -79 0
-1365 -22 -95 0
-1365 -22 -99 0
-1365 -22 -103 0
-1365 -22 -119 0
-1365 -22 -123 0
-1365 -22 -127 0
-1365 -22 -19 -35 0
-1365 -23 221 0
-1365 -23 -72 0
-1365 -23 -76 0
-1365 -23 -80 0
-1365 -23 -96 0
-1365 -23 -100 0
-1365 -23 -104 0
-1365 -23 -120 0
-1365 -23 -124 0
-1365 -23 -128 0
-1365 -23 -19 -36 0
-1365 -24 222 0
-1365 -24 -73 0
-1365 -24 -77 0
-1365 -24 -81 0
-1365 -24 -97 0
-1365 -24 -101 0
-1365 -24 -105 0
-1365 -24 -121 0
-1365 -24 -125 0
-1365 -24 -129 0
-1365 -24 -19 -37 0
-1365 -25 0
-1366 41 0
-1366 205 0
-1366 -1 0
-1366 -2 0
-1366 -6 0
-1366 -22 220 0
-1366 -22 -75 0
-1366 -22 -79 0
-1366 -22 -83 0
-1366 -22 -99 0
-1366 -22 -103 0
-1366 -22 -107 0
-1366 -22 -123 0
-1366 -22 -127 0
-1366 -22 -131 0
-1366 -22 -20 -35 0
-1366 -23 221 0
-1366 -23 -76 0
-1366 -23 -80 0
-1366 -23 -84 0
-1366 -23 -100 0
-1366 -23 -104 0
-1366 -23 -108 0
-1366 -23 -124 0
-1366 -23 -128 0
-1366 -23 -132 0
-1366 -23 -20 -36 0
-1366 -24 222 0
-1366 -24 -77 0
-1366 -24 -81 0
-1366 -24 -85 0
-1366 -24 -101 0
-1366 -24 -105 0
-1366 -24 -109 0
-1366 -24 -125 0
-1366 -24 -129 0
-1366 -24 -133 0
-1366 -24 -20 -37 0
-1366 -25 0
-1367 41 0
-1367 206 0
-1367 -1 0
-1367 -2 0
-1367 -3 0
-1367 -22 220 0
-1367 -22 -79 0
-1367 -22 -83 0
-1367 -22 -87 0
-1367 -22 -103 0
-1367 -22 -107 0
-1367 -22 -111 0
-1367 -22 -127 0
-1367 -22 -131 0
-1367 -22 -135 0
-1367 -22 -21 -35 0
-1367 -23 221 0
-1367 -23 -80 0
-1367 -23 -84 0
-1367 -23 -88 0
-1367 -23 -104 0
-1367 -23 -108 0
-1367 -23 -112 0
-1367 -23 -128 0
-1367 -23 -132 0
-1367 -23 -136 0
-1367 -23 -21 -36 0
-1367 -24 222 0
-1367 -24 -81 0
-1367 -24 -85 0
-1367 -24 -89 0
-1367 -24 -105 0
-1367 -24 -109 0
-1367 -24 -113 0
-1367 -24 -129 0
-1367 -24 -133 0
-1367 -24 -137 0
-1367 -24 -21 -37 0
-1367 -25 0
-1368 41 0
-1368 203 0
-1368 -10 0
-1368 -11 0
-1368 -12 0
-1368 -26 220 0
-1368 -26 -67 0
-1368 -26 -71 0
-1368 -26 -75 0
-1368 -26 -91 0
-1368 -26 -95 0
-1368 -26 -99 0
-1368 -26 -115 0
-1368 -26 -119 0
-1368 -26 -123 0
-1368 -26 -18 -35 0
-1368 -27 221 0
-1368 -27 -68 0
-1368 -27 -72 0
-1368 -27 -76 0
-1368 -27 -92 0
-1368 -27 -96 0
-1368 -27 -100 0
-1368 -27 -116 0
-1368 -27 -120 0
-1368 -27 -124 0
-1368 -27 -18 -36 0
-1368 -28 222 0
-1368 -28 -69 0
-1368 -28 -73 0
-1368 -28 -77 0
-1368 -28 -93 0
-1368 -28 -97 0
-1368 -28 -101 0
-1368 -28 -117 0
-1368 -28 -121 0
-1368 -28 -125 0
-1368 -28 -18 -37 0
-1368 -29 0
-1369 41 0
-1369 204 0
-1369 -7 0
-1369 -11 0
-1369 -12 0
-1369 -26 220 0
-1369 -26 -71 0
-1369 -26 -75 0
-1369 -26 -79 0
-1369 -26 -95 0
-1369 -26 -99 0
-1369 -26 -103 0
-1369 -26 -119 0
-1369 -26 -123 0
-1369 -26 -127 0
-1369 -26 -19 -35 0
-1369 -27 221 0
-1369 -27 -72 0
-1369 -27 -76 0
-1369 -27 -80 0
-1369 -27 -96 0
-1369 -27 -100 0
-1369 -27 -104 0
-1369 -27 -120 0
-1369 -27 -124 0
-1369 -27 -128 0
-1369 -27 -19 -36 0
-1369 -28 222 0
-1369 -28 -73 0
-1369 -28 -77 0
-1369 -28 -81 0
-1369 -28 -97 0
-1369 -28 -101 0
-1369 -28 -105 0
-1369 -28 -121 0
-1369 -28 -125 0
-1369 -28 -129 0
-1369 -28 -19 -37 0
-1369 -29 0
-1370 41 0
-1370 205 0
-1370 -7 0
-1370 -8 0
-1370 -12 0
-1370 -26 220 0
-1370 -26 -75 0
-1370 -26 -79 0
-1370 -26 -83 0
-1370 -26 -99 0
-1370 -26 -103 0
-1370 -26 -107 0
-1370 -26 -123 0
-1370 -26 -127 0
-1370 -26 -131 0
-1370 -26 -20 -35 0
-1370 -27 221 0
-1370 -27 -76 0
-1370 -27 -80 0
-1370 -27 -84 0
-1370 -27 -100 0
-1370 -27 -104 0
-1370 -27 -108 0
-1370 -27 -124 0
-1370 -27 -128 0
-1370 -27 -132 0
-1370 -27 -20 -36 0
-1370 -28 222 0
-1370 -28 -77 0
-1370 -28 -81 0
-1370 -28 -85 0
-1370 -28 -101 0
-1370 -28 -105 0
-1370 -28 -109 0
-1370 -28 -125 0
-1370 -28 -129 0
-1370 -28 -133 0
-1370 -28 -20 -37 0
-1370 -29 0
-1371 41 0
-1371 206 0
-1371 -7 0
-1371 -8 0
-1371 -9 0
-1371 -26 220 0
-1371 -26 -79 0
-1371 -26 -83 0
-1371 -26 -87 0
-1371 -26 -103 0
-1371 -26 -107 0
-1371 -26 -111 0
-1371 -26 -127 0
-1371 -26 -131 0
-1371 -26 -135 0
-1371 -26 -21 -35 0
-1371 -27 221 0
-1371 -27 -80 0
-1371 -27 -84 0
-1371 -27 -88 0
-1371 -27 -104 0
-1371 -27 -108 0
-1371 -27 -112 0
-1371 -27 -128 0
-1371 -27 -132 0
-1371 -27 -136 0
-1371 -27 -21 -36 0
-1371 -28 222 0
-1371 -28 -81 0
-1371 -28 -85 0
-1371 -28 -89 0
-1371 -28 -105 0
-1371 -28 -109 0
-1371 -28 -113 0
-1371 -28 -129 0
-1371 -28 -133 0
-1371 -28 -137 0
-1371 -28 -21 -37 0
-1371 -29 0
-1372 41 0
-1372 203 0
-1372 -16 0
-1372 -17 0
-1372 -30 220 0
-1372 -30 -67 0
-1372 -30 -71 0
-1372 -30 -75 0
-1372 -30 -91 0
-1372 -30 -95 0
-1372 -30 -99 0
-1372 -30 -115 0
-1372 -30 -119 0
-1372 -30 -123 0
-1372 -30 -18 -35 0
-1372 -31 221 0
-1372 -31 -68 0
-1372 -31 -72 0
-1372 -31 -76 0
-1372 -31 -92 0
-1372 -31 -96 0
-1372 -31 -100 0
-1372 -31 -116 0
-1372 -31 -120 0
-1372 -31 -124 0
-1372 -31 -18 -36 0
-1372 -32 222 0
-1372 -32 -69 0
-1372 -32 -73 0
-1372 -32 -77 0
-1372 -32 -93 0
-1372 -32 -97 0
-1372 -32 -101 0
-1372 -32 -117 0
-1372 -32 -121 0
-1372 -32 -125 0
-1372 -32 -18 -37 0
-1372 -33 0
-1373 41 0
-1373 204 0
-1373 -17 0
-1373 -30 220 0
-1373 -30 -71 0
-1373 -30 -75 0
-1373 -30 -79 0
-1373 -30 -95 0
-1373 -30 -99 0
-1373 -30 -103 0
-1373 -30 -119 0
-1373 -30 -123 0
-1373 -30 -127 0
-1373 -30 -19 -35 0
-1373 -31 221 0
-1373 -31 -72 0
-1373 -31 -76 0
-1373 -31 -80 0
-1373 -31 -96 0
-1373 -31 -100 0
-1373 -31 -104 0
-1373 -31 -120 0
-1373 -31 -124 0
-1373 -31 -128 0
-1373 -31 -19 -36 0
-1373 -32 222 0
-1373 -32 -73 0
-1373 -32 -77 0
-1373 -32 -81 0
-1373 -32 -97 0
-1373 -32 -101 0
-1373 -32 -105 0
-1373 -32 -121 0
-1373 -32 -125 0
-1373 -32 -129 0
-1373 -32 -19 -37 0
-1373 -33 0
-1374 41 0
-1374 205 0
-1374 -13 0
-1374 -30 220 0
-1374 -30 -75 0
-1374 -30 -79 0
-1374 -30 -83 0
-1374 -30 -99 0
-1374 -30 -103 0
-1374 -30 -107 0
-1374 -30 -123 0
-1374 -30 -127 0
-1374 -30 -131 0
-1374 -30 -20 -35 0
-1374 -31 221 0
-1374 -31 -76 0
-1374 -31 -80 0
-1374 -31 -84 0
-1374 -31 -100 0
-1374 -31 -104 0
-1374 -31 -108 0
-1374 -31 -124 0
-1374 -31 -128 0
-1374 -31 -132 0
-1374 -31 -20 -36 0
-1374 -32 222 0
-1374 -32 -77 0
-1374 -32 -81 0
-1374 -32 -85 0
-1374 -32 -101 0
-1374 -32 -105 0
-1374 -32 -109 0
-1374 -32 -125 0
-1374 -32 -129 0
-1374 -32 -133 0
-1374 -32 -20 -37 0
-1374 -33 0
-1375 41 0
-1375 206 0
-1375 -13 0
-1375 -14 0
-1375 -30 220 0
-1375 -30 -79 0
-1375 -30 -83 0
-1375 -30 -87 0
-1375 -30 -103 0
-1375 -30 -107 0
-1375 -30 -111 0
-1375 -30 -127 0
-1375 -30 -131 0
-1375 -30 -135 0
-1375 -30 -21 -35 0
-1375 -31 221 0
-1375 -31 -80 0
-1375 -31 -84 0
-1375 -31 -88 0
-1375 -31 -104 0
-1375 -31 -108 0
-1375 -31 -112 0
-1375 -31 -128 0
-1375 -31 -132 0
-1375 -31 -136 0
-1375 -31 -21 -36 0
-1375 -32 222 0
-1375 -32 -81 0
-1375 -32 -85 0
-1375 -32 -89 0
-1375 -32 -105 0
-1375 -32 -109 0
-1375 -32 -113 0
-1375 -32 -129 0
-1375 -32 -133 0
-1375 -32 -137 0
-1375 -32 -21 -37 0
-1375 -33 0
-1376 41 0
-1376 203 0
-1376 219 0
-1376 -66 0
-1376 -70 0
-1376 -74 0
-1376 -90 0
-1376 -94 0
-1376 -98 0
-1376 -114 0
-1376 -118 0
-1376 -122 0
-1376 -18 -34 0
-1377 41 0
-1377 204 0
-1377 219 0
-1377 -70 0
-1377 -74 0
-1377 -78 0
-1377 -94 0
-1377 -98 0
-1377 -102 0
-1377 -118 0
-1377 -122 0
-1377 -126 0
-1377 -19 -34 0
-1378 41 0
-1378 205 0
-1378 219 0
-1378 -74 0
-1378 -78 0
-1378 -82 0
-1378 -98 0
-1378 -102 0
-1378 -106 0
-1378 -122 0
-1378 -126 0
-1378 -130 0
-1378 -20 -34 0
-1379 41 0
-1379 206 0
-1379 219 0
-1379 -78 0
-1379 -82 0
-1379 -86 0
-1379 -102 0
-1379 -106 0
-1379 -110 0
-1379 -126 0
-1379 -130 0
-1379 -134 0
-1379 -21 -34 0
-1 186 1296 1297 1298 1299 1300 1301 1302 1303 1304 1305 1306 1307 1308 1309 1310 1311 1312 1313 1314 1315 1316 1317 1318 1319 0
-2 187 1296 1297 1298 1299 1300 1301 1302 1303 1304 1305 1306 1307 1308 1309 1310 1311 1312 1313 1314 1315 1316 1317 1318 1319 0
-3 188 1296 1297 1298 1299 1300 1301 1302 1303 1304 1305 1306 1307 1308 1309 1310 1311 1312 1313 1314 1315 1316 1317 1318 1319 0
-4 189 1296 1297 1298 1299 1300 1301 1302 1303 1304 1305 1306 1307 1308 1309 1310 1311 1312 1313 1314 1315 1316 1317 1318 1319 0
-5 190 1296 1297 1298 1299 1300 1301 1302 1303 1304 1305 1306 1307 1308 1309 1310 1311 1312 1313 1314 1315 1316 1317 1318 1319 0
-6 191 1296 1297 1298 1299 1300 1301 1302 1303 1304 1305 1306 1307 1308 1309 1310 1311 1312 1313 1314 1315 1316 1317 1318 1319 0
-22 207 1296 1297 1298 1299 1300 1301 1302 1303 1304 1305 1306 1307 1308 1309 1310 1311 1312 1313 1314 1315 1316 1317 1318 1319 0
-23 208 1296 1297 1298 1299 1300 1301 1302 1303 1304 1305 1306 1307 1308 1309 1310 1311 1312 1313 1314 1315 1316 1317 1318 1319 0
-24 209 1296 1297 1298 1299 1300 1301 1302 1303 1304 1305 1306 1307 1308 1309 1310 1311 1312 1313 1314 1315 1316 1317 1318 1319 0
-25 210 1296 1297 1298 1299 1300 1301 1302 1303 1304 1305 1306 1307 1308 1309 1310 1311 1312 1313 1314 1315 1316 1317 1318 1319 0
-7 192 1320 1321 1322 1323 1324 1325 1326 1327 1328 1329 1330 1331 1332 1333 1334 1335 1336 1337 1338 1339 1340 1341 1342 1343 0
-8 193 1320 1321 1322 1323 1324 1325 1326 1327 1328 1329 1330 1331 1332 1333 1334 1335 1336 1337 1338 1339 1340 1341 1342 1343 0
-9 194 1320 1321 1322 1323 1324 1325 1326 1327 1328 1329 1330 1331 1332 1333 1334 1335 1336 1337 1338 1339 1340 1341 1342 1343 0
-10 195 1320 1321 1322 1323 1324 1325 1326 1327 1328 1329 1330 1331 1332 1333 1334 1335 1336 1337 1338 1339 1340 1341 1342 1343 0
-11 196 1320 1321 1322 1323 1324 1325 1326 1327 1328 1329 1330 1331 1332 1333 1334 1335 1336 1337 1338 1339 1340 1341 1342 1343 0
-12 197 1320 1321 1322 1323 1324 1325 1326 1327 1328 1329 1330 1331 1332 1333 1334 1335 1336 1337 1338 1339 1340 1341 1342 1343 0
-26 211 1320 1321 1322 1323 1324 1325 1326 1327 1328 1329 1330 1331 1332 1333 1334 1335 1336 1337 1338 1339 1340 1341 1342 1343 0
-27 212 1320 1321 1322 1323 1324 1325 1326 1327 1328 1329 1330 1331 1332 1333 1334 1335 1336 1337 1338 1339 1340 1341 1342 1343 0
-28 213 1320 1321 1322 1323 1324 1325 1326 1327 1328 1329 1330 1331 1332 1333 1334 1335 1336 1337 1338 1339 1340 1341 1342 1343 0
-29 214 1320 1321 1322 1323 1324 1325 1326 1327 1328 1329 1330 1331 1332 1333 1334 1335 1336 1337 1338 1339 1340 1341 1342 1343 0
-13 198 1344 1345 1346 1347 1348 1349 1350 1351 1352 1353 1354 1355 1356 1357 1358 1359 1360 1361 1362 1363 0
-14 199 1344 1345 1346 1347 1348 1349 1350 1351 1352 1353 1354 1355 1356 1357 1358 1359 1360 1361 1362 1363 0
-15 200 1344 1345 1346 1347 1348 1349 1350 1351 1352 1353 1354 1355 1356 1357 1358 1359 1360 1361 1362 1363 0
-16 201 1344 1345 1346 1347 1348 1349 1350 1351 1352 1353 1354 1355 1356 1357 1358 1359 1360 1361 1362 1363 0
-17 202 1344 1345 1346 1347 1348 1349 1350 1351 1352 1353 1354 1355 1356 1357 1358 1359 1360 1361 1362 1363 0
-30 215 1344 1345 1346 1347 1348 1349 1350 1351 1352 1353 1354 1355 1356 1357 1358 1359 1360 1361 1362 1363 0
-31 216 1344 1345 1346 1347 1348 1349 1350 1351 1352 1353 1354 1355 1356 1357 1358 1359 1360 1361 1362 1363 0
-32 217 1344 1345 1346 1347 1348 1349 1350 1351 1352 1353 1354 1355 1356 1357 1358 1359 1360 1361 1362 1363 0
-33 218 1344 1345 1346 1347 1348 1349 1350 1351 1352 1353 1354 1355 1356 1357 1358 1359 1360 1361 1362 1363 0
-18 203 1364 1365 1366 1367 1368 1369 1370 1371 1372 1373 1374 1375 1376 1377 1378 1379 0
-19 204 1364 1365 1366 1367 1368 1369 1370 1371 1372 1373 1374 1375 1376 1377 1378 1379 0
-20 205 1364 1365 1366 1367 1368 1369 1370 1371 1372 1373 1374 1375 1376 1377 1378 1379 0
-21 206 1364 1365 1366 1367 1368 1369 1370 1371 1372 1373 1374 1375 1376 1377 1378 1379 0
-34 219 1364 1365 1366 1367 1368 1369 1370 1371 1372 1373 1374 1375 1376 1377 1378 1379 0
-35 220 1364 1365 1366 1367 1368 1369 1370 1371 1372 1373 1374 1375 1376 1377 1378 1379 0
-36 221 1364 1365 1366 1367 1368 1369 1370 1371 1372 1373 1374 1375 1376 1377 1378 1379 0
-37 222 1364 1365 1366 1367 1368 1369 1370 1371 1372 1373 1374 1375 1376 1377 1378 1379 0
-1380 -1381 0
-1380 -1382 0
-1380 -1383 0
-1380 -1384 0
-1380 -1385 0
-1380 -1386 0
-1380 -1387 0
-1380 -1388 0
-1380 -1389 0
-1380 -1390 0
-1380 -1391 0
-1380 -1392 0
-1380 -1393 0
-1380 -1394 0
-1380 -1395 0
-1380 -1396 0
-1380 -1397 0
-1380 -1398 0
-1380 -1399 0
-1380 -1400 0
-1380 -1401 0
-1380 -1402 0
-1380 -1403 0
-1380 -1404 0
-1380 -1405 0
-1380 -1406 0
-1380 -1407 0
-1380 -1408 0
-1380 -1409 0
-1380 -1410 0
-1380 -1411 0
-1380 -1412 0
-1380 -1413 0
-1380 -1414 0
-1380 -1415 0
-1380 -1416 0
-1380 -1417 0
-1380 -1418 0
-1380 -1419 0
-1380 -1420 0
-1380 -1421 0
-1380 -1422 0
-1380 -1423 0
-1380 -1424 0
-1380 -1425 0
-1380 -1426 0
-1380 -1427 0
-1380 -1428 0
-1380 -1429 0
-1380 -1430 0
-1380 -1431 0
-1380 -1432 0
-1380 -1433 0
-1380 -1434 0
-1380 -1435 0
-1380 -1436 0
-1380 -1437 0
-1380 -1438 0
-1380 -1439 0
-1380 -1440 0
-1380 -1441 0
-1380 -1442 0
-1380 -1443 0
-1380 -1444 0
-1380 -1445 0
-1380 -1446 0
-1380 -1447 0
-1380 -1448 0
-1380 -1449 0
-1380 -1450 0
-1380 -1451 0
-1380 -1452 0
-1380 -1453 0
-1380 -1454 0
-1380 -1455 0
-1380 -1456 0
-1380 -1457 0
-1380 -1458 0
-1380 -1459 0
-1380 -1460 0
-1380 -1461 0
-1380 -1462 0
-1380 -1463 0
-1381 -1382 0
-1381 -1383 0
-1381 -1384 0
-1381 -1385 0
-1381 -1386 0
-1381 -1387 0
-1381 -1388 0
-1381 -1389 0
-1381 -1390 0
-1381 -1391 0
-1381 -1392 0
-1381 -1393 0
-1381 -1394 0
-1381 -1395 0
-1381 -1396 0
-1381 -1397 0
-1381 -1398 0
-1381 -1399 0
-1381 -1400 0
-1381 -1401 0
-1381 -1402 0
-1381 -1403 0
-1381 -1404 0
-1381 -1405 0
-1381 -1406 0
-1381 -1407 0
-1381 -1408 0
-1381 -1409 0
-1381 -1410 0
-1381 -1411 0
-1381 -1412 0
-1381 -1413 0
-1381 -1414 0
-1381 -1415 0
-1381 -1416 0
-1381 -1417 0
-1381 -1418 0
-1381 -1419 0
-1381 -1420 0
-1381 -1421 0
-1381 -1422 0
-1381 -1423 0
-1381 -1424 0
-1381 -1425 0
-1381 -1426 0
-1381 -1427 0
-1381 -1428 0
-1381 -1429 0
-1381 -1430 0
-1381 -1431 0
-1381 -1432 0
-1381 -1433 0
-1381 -1434 0
-1381 -1435 0
-1381 -1436 0
-1381 -1437 0
-1381 -1438 0
-1381 -1439 0
-1381 -1440 0
-1381 -1441 0
-1381 -1442 0
-1381 -1443 0
-1381 -1444 0
-1381 -1445 0
-1381 -1446 0
-1381 -1447 0
-1381 -1448 0
-1381 -1449 0
-1381 -1450 0
-1381 -1451 0
-1381 -1452 0
-1381 -1453 0
-1381 -1454 0
-1381 -1455 0
-1381 -1456 0
-1381 -1457 0
-1381 -1458 0
-1381 -1459 0
-1381 -1460 0
-1381 -1461 0
-1381 -1462 0
-1381 -1463 0
-1382 -1383 0
-1382 -1384 0
-1382 -1385 0
-1382 -1386 0
-1382 -1387 0
-1382 -1388 0
-1382 -1389 0
-1382 -1390 0
-1382 -1391 0
-1382 -1392 0
-1382 -1393 0
-1382 -1394 0
-1382 -1395 0
-1382 -1396 0
-1382 -1397 0
-1382 -1398 0
-1382 -1399 0
-1382 -1400 0
-1382 -1401 0
-1382 -1402 0
-1382 -1403 0
-1382 -1404 0
-1382 -1405 0
-1382 -1406 0
-1382 -1407 0
-1382 -1408 0
-1382 -1409 0
-1382 -1410 0
-1382 -1411 0
-1382 -1412 0
-1382 -1413 0
-1382 -1414 0
-1382 -1415 0
-1382 -1416 0
-1382 -1417 0
-1382 -1418 0
-1382 -1419 0
-1382 -1420 0
-1382 -1421 0
-1382 -1422 0
-1382 -1423 0
-1382 -1424 0
-1382 -1425 0
-1382 -1426 0
-1382 -1427 0
-1382 -1428 0
-1382 -1429 0
-1382 -1430 0
-1382 -1431 0
-1382 -1432 0
-1382 -1433 0
-1382 -1434 0
-1382 -1435 0
-1382 -1436 0
-1382 -1437 0
-1382 -1438 0
-1382 -1439 0
-1382 -1440 0
-1382 -1441 0
-1382 -1442 0
-1382 -1443 0
-1382 -1444 0
-1382 -1445 0
-1382 -1446 0
-1382 -1447 0
-1382 -1448 0
-1382 -1449 0
-1382 -1450 0
-1382 -1451 0
-1382 -1452 0
-1382 -1453 0
-1382 -1454 0
-1382 -1455 0
-1382 -1456 0
-1382 -1457 0
-1382 -1458 0
-1382 -1459 0
-1382 -1460 0
-1382 -1461 0
-1382 -1462 0
-1382 -1463 0
-1383 -1384 0
-1383 -1385 0
-1383 -1386 0
-1383 -1387 0
-1383 -1388 0
-1383 -1389 0
-1383 -1390 0
-1383 -1391 0
-1383 -1392 0
-1383 -1393 0
-1383 -1394 0
-1383 -1395 0
-1383 -1396 0
-1383 -1397 0
-1383 -1398 0
-1383 -1399 0
-1383 -1400 0
-1383 -1401 0
-1383 -1402 0
-1383 -1403 0
-1383 -1404 0
-1383 -1405 0
-1383 -1406 0
-1383 -1407 0
-1383 -1408 0
-1383 -1409 0
-1383 -1410 0
-1383 -1411 0
-1383 -1412 0
-1383 -1413 0
-1383 -1414 0
-1383 -1415 0
-1383 -1416 0
-1383 -1417 0
-1383 -1418 0
-1383 -1419 0
-1383 -1420 0
-1383 -1421 0
-1383 -1422 0
-1383 -1423 0
-1383 -1424 0
-1383 -1425 0
-1383 -1426 0
-1383 -1427 0
-1383 -1428 0
-1383 -1429 0
-1383 -1430 0
-1383 -1431 0
-1383 -1432 0
-1383 -1433 0
-1383 -1434 0
-1383 -1435 0
-1383 -1436 0
-1383 -1437 0
-1383 -1438 0
-1383 -1439 0
-1383 -1440 0
-1383 -1441 0
-1383 -1442 0
-1383 -1443 0
-1383 -1444 0
-1383 -1445 0
-1383 -1446 0
-1383 -1447 0
-1383 -1448 0
-1383 -1449 0
-1383 -1450 0
-1383 -1451 0
-1383 -1452 0
-1383 -1453 0
-1383 -1454 0
-1383 -1455 0
-1383 -1456 0
-1383 -1457 0
-1383 -1458 0
-1383 -1459 0
-1383 -1460 0
-1383 -1461 0
-1383 -1462 0
-1383 -1463 0
-1384 -1385 0
-1384 -1386 0
-1384 -1387 0
-1384 -1388 0
-1384 -1389 0
-1384 -1390 0
-1384 -1391 0
-1384 -1392 0
-1384 -1393 0
-1384 -1394 0
-1384 -1395 0
-1384 -1396 0
-1384 -1397 0
-1384 -1398 0
-1384 -1399 0
-1384 -1400 0
-1384 -1401 0
-1384 -1402 0
-1384 -1403 0
-1384 -1404 0
-1384 -1405 0
-1384 -1406 0
-1384 -1407 0
-1384 -1408 0
-1384 -1409 0
-1384 -1410 0
-1384 -1411 0
-1384 -1412 0
-1384 -1413 0
-1384 -1414 0
-1384 -1415 0
-1384 -1416 0
-1384 -1417 0
-1384 -1418 0
-1384 -1419 0
-1384 -1420 0
-1384 -1421 0
-1384 -1422 0
-1384 -1423 0
-1384 -1424 0
-1384 -1425 0
-1384 -1426 0
-1384 -1427 0
-1384 -1428 0
-1384 -1429 0
-1384 -1430 0
-1384 -1431 0
-1384 -1432 0
-1384 -1433 0
-1384 -1434 0
-1384 -1435 0
-1384 -1436 0
-1384 -1437 0
-1384 -1438 0
-1384 -1439 0
-1384 -1440 0
-1384 -1441 0
-1384 -1442 0
-1384 -1443 0
-1384 -1444 0
-1384 -1445 0
-1384 -1446 0
-1384 -1447 0
-1384 -1448 0
-1384 -1449 0
-1384 -1450 0
-1384 -1451 0
-1384 -1452 0
-1384 -1453 0
-1384 -1454 0
-1384 -1455 0
-1384 -1456 0
-1384 -1457 0
-1384 -1458 0
-1384 -1459 0
-1384 -1460 0
-1384 -1461 0
-1384 -1462 0
-1384 -1463 0
-1385 -1386 0
-1385 -1387 0
-1385 -1388 0
-1385 -1389 0
-1385 -1390 0
-1385 -1391 0
-1385 -1392 0
-1385 -1393 0
-1385 -1394 0
-1385 -1395 0
-1385 -1396 0
-1385 -1397 0
-1385 -1398 0
-1385 -1399 0
-1385 -1400 0
-1385 -1401 0
-1385 -1402 0
-1385 -1403 0
-1385 -1404 0
-1385 -1405 0
-1385 -1406 0
-1385 -1407 0
-1385 -1408 0
-1385 -1409 0
-1385 -1410 0
-1385 -1411 0
-1385 -1412 0
-1385 -1413 0
-1385 -1414 0
-1385 -1415 0
-1385 -1416 0
-1385 -1417 0
-1385 -1418 0
-1385 -1419 0
-1385 -1420 0
-1385 -1421 0
-1385 -1422 0
-1385 -1423 0
-1385 -1424 0
-1385 -1425 0
-1385 -1426 0
-1385 -1427 0
-1385 -1428 0
-1385 -1429 0
-1385 -1430 0
-1385 -1431 0
-1385 -1432 0
-1385 -1433 0
-1385 -1434 0
-1385 -1435 0
-1385 -1436 0
-1385 -1437 0
-1385 -1438 0
-1385 -1439 0
-1385 -1440 0
-1385 -1441 0
-1385 -1442 0
-1385 -1443 0
-1385 -1444 0
-1385 -1445 0
-1385 -1446 0
-1385 -1447 0
-1385 -1448 0
-1385 -1449 0
-1385 -1450 0
-1385 -1451 0
-1385 -1452 0
-1385 -1453 0
-1385 -1454 0
-1385 -1455 0
-1385 -1456 0
-1385 -1457 0
-1385 -1458 0
-1385 -1459 0
-1385 -1460 0
-1385 -1461 0
-1385 -1462 0
-1385 -1463 0
-1386 -1387 0
-1386 -1388 0
-1386 -1389 0
-1386 -1390 0
-1386 -1391 0
-1386 -1392 0
-1386 -1393 0
-1386 -1394 0
-1386 -1395 0
-1386 -1396 0
-1386 -1397 0
-1386 -1398 0
-1386 -1399 0
-1386 -1400 0
-1386 -1401 0
-1386 -1402 0
-1386 -1403 0
-1386 -1404 0
-1386 -1405 0
-1386 -1406 0
-1386 -1407 0
-1386 -1408 0
-1386 -1409 0
-1386 -1410 0
-1386 -1411 0
-1386 -1412 0
-1386 -1413 0
-1386 -1414 0
-1386 -1415 0
-1386 -1416 0
-1386 -1417 0
-1386 -1418 0
-1386 -1419 0
-1386 -1420 0
-1386 -1421 0
-1386 -1422 0
-1386 -1423 0
-1386 -1424 0
-1386 -1425 0
-1386 -1426 0
-1386 -1427 0
-1386 -1428 0
-1386 -1429 0
-1386 -1430 0
-1386 -1431 0
-1386 -1432 0
-1386 -1433 0
-1386 -1434 0
-1386 -1435 0
-1386 -1436 0
-1386 -1437 0
-1386 -1438 0
-1386 -1439 0
-1386 -1440 0
-1386 -1441 0
-1386 -1442 0
-1386 -1443 0
-1386 -1444 0
-1386 -1445 0
-1386 -1446 0
-1386 -1447 0
-1386 -1448 0
-1386 -1449 0
-1386 -1450 0
-1386 -1451 0
-1386 -1452 0
-1386 -1453 0
-1386 -1454 0
-1386 -1455 0
-1386 -1456 0
-1386 -1457 0
-1386 -1458 0
-1386 -1459 0
-1386 -1460 0
-1386 -1461 0
-1386 -1462 0
-1386 -1463 0
-1387 -1388 0
-1387 -1389 0
-1387 -1390 0
-1387 -1391 0
-1387 -1392 0
-1387 -1393 0
-1387 -1394 0
-1387 -1395 0
-1387 -1396 0
-1387 -1397 0
-1387 -1398 0
-1387 -1399 0
-1387 -1400 0
-1387 -1401 0
-1387 -1402 0
-1387 -1403 0
-1387 -1404 0
-1387 -1405 0
-1387 -1406 0
-1387 -1407 0
-1387 -1408 0
-1387 -1409 0
-1387 -1410 0
-1387 -1411 0
-1387 -1412 0
-1387 -1413 0
-1387 -1414 0
-1387 -1415 0
-1387 -1416 0
-1387 -1417 0
-1387 -1418 0
-1387 -1419 0
-1387 -1420 0
-1387 -1421 0
-1387 -1422 0
-1387 -1423 0
-1387 -1424 0
-1387 -1425 0
-1387 -1426 0
-1387 -1427 0
-1387 -1428 0
-1387 -1429 0
-1387 -1430 0
-1387 -1431 0
-1387 -1432 0
-1387 -1433 0
-1387 -1434 0
-1387 -1435 0
-1387 -1436 0
-1387 -1437 0
-1387 -1438 0
-1387 -1439 0
-1387 -1440 0
-1387 -1441 0
-1387 -1442 0
-1387 -1443 0
-1387 -1444 0
-1387 -1445 0
-1387 -1446 0
-1387 -1447 0
-1387 -1448 0
-1387 -1449 0
-1387 -1450 0
-1387 -1451 0
-1387 -1452 0
-1387 -1453 0
-1387 -1454 0
-1387 -1455 0
-1387 -1456 0
-1387 -1457 0
-1387 -1458 0
-1387 -1459 0
-1387 -1460 0
-1387 -1461 0
-1387 -1462 0
-1387 -1463 0
-1388 -1389 0
-1388 -1390 0
-1388 -1391 0
-1388 -1392 0
-1388 -1393 0
-1388 -1394 0
-1388 -1395 0
-1388 -1396 0
-1388 -1397 0
-1388 -1398 0
-1388 -1399 0
-1388 -1400 0
-1388 -1401 0
-1388 -1402 0
-1388 -1403 0
-1388 -1404 0
-1388 -1405 0
-1388 -1406 0
-1388 -1407 0
-1388 -1408 0
-1388 -1409 0
-1388 -1410 0
-1388 -1411 0
-1388 -1412 0
-1388 -1413 0
-1388 -1414 0
-1388 -1415 0
-1388 -1416 0
-1388 -1417 0
-1388 -1418 0
-1388 -1419 0
-1388 -1420 0
-1388 -1421 0
-1388 -1422 0
-1388 -1423 0
-1388 -1424 0
-1388 -1425 0
-1388 -1426 0
-1388 -1427 0
-1388 -1428 0
-1388 -1429 0
-1388 -1430 0
-1388 -1431 0
-1388 -1432 0
-1388 -1433 0
-1388 -1434 0
-1388 -1435 0
-1388 -1436 0
-1388 -1437 0
-1388 -1438 0
-1388 -1439 0
-1388 -1440 0
-1388 -1441 0
-1388 -1442 0
-1388 -1443 0
-1388 -1444 0
-1388 -1445 0
-1388 -1446 0
-1388 -1447 0
-1388 -1448 0
-1388 -1449 0
-1388 -1450 0
-1388 -1451 0
-1388 -1452 0
-1388 -1453 0
-1388 -1454 0
-1388 -1455 0
-1388 -1456 0
-1388 -1457 0
-1388 -1458 0
-1388 -1459 0
-1388 -1460 0
-1388 -1461 0
-1388 -1462 0
-1388 -1463 0
-1389 -1390 0
-1389 -1391 0
-1389 -1392 0
-1389 -1393 0
-1389 -1394 0
-1389 -1395 0
-1389 -1396 0
-1389 -1397 0
-1389 -1398 0
-1389 -1399 0
-1389 -1400 0
-1389 -1401 0
-1389 -1402 0
-1389 -1403 0
-1389 -1404 0
-1389 -1405 0
-1389 -1406 0
-1389 -1407 0
-1389 -1408 0
-1389 -1409 0
-1389 -1410 0
-1389 -1411 0
-1389 -1412 0
-1389 -1413 0
-1389 -1414 0
-1389 -1415 0
-1389 -1416 0
-1389 -1417 0
-1389 -1418 0
-1389 -1419 0
-1389 -1420 0
-1389 -1421 0
-1389 -1422 0
-1389 -1423 0
-1389 -1424 0
-1389 -1425 0
-1389 -1426 0
-1389 -1427 0
-1389 -1428 0
-1389 -1429 0
-1389 -1430 0
-1389 -1431 0
-1389 -1432 0
-1389 -1433 0
-1389 -1434 0
-1389 -1435 0
-1389 -1436 0
-1389 -1437 0
-1389 -1438 0
-1389 -1439 0
-1389 -1440 0
-1389 -1441 0
-1389 -1442 0
-1389 -1443 0
-1389 -1444 0
-1389 -1445 0
-1389 -1446 0
-1389 -1447 0
-1389 -1448 0
-1389 -1449 0
-1389 -1450 0
-1389 -1451 0
-1389 -1452 0
-1389 -1453 0
-1389 -1454 0
-1389 -1455 0
-1389 -1456 0
-1389 -1457 0
-1389 -1458 0
-1389 -1459 0
-1389 -1460 0
-1389 -1461 0
-1389 -1462 0
-1389 -1463 0
-1390 -1391 0
-1390 -1392 0
-1390 -1393 0
-1390 -1394 0
-1390 -1395 0
-1390 -1396 0
-1390 -1397 0
-1390 -1398 0
-1390 -1399 0
-1390 -1400 0
-1390 -1401 0
-1390 -1402 0
-1390 -1403 0
-1390 -1404 0
-1390 -1405 0
-1390 -1406 0
-1390 -1407 0
-1390 -1408 0
-1390 -1409 0
-1390 -1410 0
-1390 -1411 0
-1390 -1412 0
-1390 -1413 0
-1390 -1414 0
-1390 -1415 0
-1390 -1416 0
-1390 -1417 0
-1390 -1418 0
-1390 -1419 0
-1390 -1420 0
-1390 -1421 0
-1390 -1422 0
-1390 -1423 0
-1390 -1424 0
-1390 -1425 0
-1390 -1426 0
-1390 -1427 0
-1390 -1428 0
-1390 -1429 0
-1390 -1430 0
-1390 -1431 0
-1390 -1432 0
-1390 -1433 0
-1390 -1434 0
-1390 -1435 0
-1390 -1436 0
-1390 -1437 0
-1390 -1438 0
-1390 -1439 0
-1390 -1440 0
-1390 -1441 0
-1390 -1442 0
-1390 -1443 0
-1390 -1444 0
-1390 -1445 0
-1390 -1446 0
-1390 -1447 0
-1390 -1448 0
-1390 -1449 0
-1390 -1450 0
-1390 -1451 0
-1390 -1452 0
-1390 -1453 0
-1390 -1454 0
-1390 -1455 0
-1390 -1456 0
-1390 -1457 0
-1390 -1458 0
-1390 -1459 0
-1390 -1460 0
-1390 -1461 0
-1390 -1462 0
-1390 -1463 0
-1391 -1392 0
-1391 -1393 0
-1391 -1394 0
-1391 -1395 0
-1391 -1396 0
-1391 -1397 0
-1391 -1398 0
-1391 -1399 0
-1391 -1400 0
-1391 -1401 0
-1391 -1402 0
-1391 -1403 0
-1391 -1404 0
-1391 -1405 0
-1391 -1406 0
-1391 -1407 0
-1391 -1408 0
-1391 -1409 0
-1391 -1410 0
-1391 -1411 0
-1391 -1412 0
-1391 -1413 0
-1391 -1414 0
-1391 -1415 0
-1391 -1416 0
-1391 -1417 0
-1391 -1418 0
-1391 -1419 0
-1391 -1420 0
-1391 -1421 0
-1391 -1422 0
-1391 -1423 0
-1391 -1424 0
-1391 -1425 0
-1391 -1426 0
-1391 -1427 0
-1391 -1428 0
-1391 -1429 0
-1391 -1430 0
-1391 -1431 0
-1391 -1432 0
-1391 -1433 0
-1391 -1434 0
-1391 -1435 0
-1391 -1436 0
-1391 -1437 0
-1391 -1438 0
-1391 -1439 0
-1391 -1440 0
-1391 -1441 0
-1391 -1442 0
-1391 -1443 0
-1391 -1444 0
-1391 -1445 0
-1391 -1446 0
-1391 -1447 0
-1391 -1448 0
-1391 -1449 0
-1391 -1450 0
-1391 -1451 0
-1391 -1452 0
-1391 -1453 0
-1391 -1454 0
-1391 -1455 0
-1391 -1456 0
-1391 -1457 0
-1391 -1458 0
-1391 -1459 0
-1391 -1460 0
-1391 -1461 0
-1391 -1462 0
-1391 -1463 0
-1392 -1393 0
-1392 -1394 0
-1392 -1395 0
-1392 -1396 0
-1392 -1397 0
-1392 -1398 0
-1392 -1399 0
-1392 -1400 0
-1392 -1401 0
-1392 -1402 0
-1392 -1403 0
-1392 -1404 0
-1392 -1405 0
-1392 -1406 0
-1392 -1407 0
-1392 -1408 0
-1392 -1409 0
-1392 -1410 0
-1392 -1411 0
-1392 -1412 0
-1392 -1413 0
-1392 -1414 0
-1392 -1415 0
-1392 -1416 0
-1392 -1417 0
-1392 -1418 0
-1392 -1419 0
-1392 -1420 0
-1392 -1421 0
-1392 -1422 0
-1392 -1423 0
-1392 -1424 0
-1392 -1425 0
-1392 -1426 0
-1392 -1427 0
-1392 -1428 0
-1392 -1429 0
-1392 -1430 0
-1392 -1431 0
-1392 -1432 0
-1392 -1433 0
-1392 -1434 0
-1392 -1435 0
-1392 -1436 0
-1392 -1437 0
-1392 -1438 0
-1392 -1439 0
-1392 -1440 0
-1392 -1441 0
-1392 -1442 0
-1392 -1443 0
-1392 -1444 0
-1392 -1445 0
-1392 -1446 0
-1392 -1447 0
-1392 -1448 0
-1392 -1449 0
-1392 -1450 0
-1392 -1451 0
-1392 -1452 0
-1392 -1453 0
-1392 -1454 0
-1392 -1455 0
-1392 -1456 0
-1392 -1457 0
-1392 -1458 0
-1392 -1459 0
-1392 -1460 0
-1392 -1461 0
-1392 -1462 0
-1392 -1463 0
-1393 -1394 0
-1393 -1395 0
-1393 -1396 0
-1393 -1397 0
-1393 -1398 0
-1393 -1399 0
-1393 -1400 0
-1393 -1401 0
-1393 -1402 0
-1393 -1403 0
-1393 -1404 0
-1393 -1405 0
-1393 -1406 0
-1393 -1407 0
-1393 -1408 0
-1393 -1409 0
-1393 -1410 0
-1393 -1411 0
-1393 -1412 0
-1393 -1413 0
-1393 -1414 0
-1393 -1415 0
-1393 -1416 0
-1393 -1417 0
-1393 -1418 0
-1393 -1419 0
-1393 -1420 0
-1393 -1421 0
-1393 -1422 0
-1393 -1423 0
-1393 -1424 0
-1393 -1425 0
-1393 -1426 0
-1393 -1427 0
-1393 -1428 0
-1393 -1429 0
-1393 -1430 0
-1393 -1431 0
-1393 -1432 0
-1393 -1433 0
-1393 -1434 0
-1393 -1435 0
-1393 -1436 0
-1393 -1437 0
-1393 -1438 0
-1393 -1439 0
-1393 -1440 0
-1393 -1441 0
-1393 -1442 0
-1393 -1443 0
-1393 -1444 0
-1393 -1445 0
-1393 -1446 0
-1393 -1447 0
-1393 -1448 0
-1393 -1449 0
-1393 -1450 0
-1393 -1451 0
-1393 -1452 0
-1393 -1453 0
-1393 -1454 0
-1393 -1455 0
-1393 -1456 0
-1393 -1457 0
-1393 -1458 0
-1393 -1459 0
-1393 -1460 0
-1393 -1461 0
-1393 -1462 0
-1393 -1463 0
-1394 -1395 0
-1394 -1396 0
-1394 -1397 0
-1394 -1398 0
-1394 -1399 0
-1394 -1400 0
-1394 -1401 0
-1394 -1402 0
-1394 -1403 0
-1394 -1404 0
-1394 -1405 0
-1394 -1406 0
-1394 -1407 0
-1394 -1408 0
-1394 -1409 0
-1394 -1410 0
-1394 -1411 0
-1394 -1412 0
-1394 -1413 0
-1394 -1414 0
-1394 -1415 0
-1394 -1416 0
-1394 -1417 0
-1394 -1418 0
-1394 -1419 0
-1394 -1420 0
-1394 -1421 0
-1394 -1422 0
-1394 -1423 0
-1394 -1424 0
-1394 -1425 0
-1394 -1426 0
-1394 -1427 0
-1394 -1428 0
-1394 -1429 0
-1394 -1430 0
-1394 -1431 0
-1394 -1432 0
-1394 -1433 0
-1394 -1434 0
-1394 -1435 0
-1394 -1436 0
-1394 -1437 0
-1394 -1438 0
-1394 -1439 0
-1394 -1440 0
-1394 -1441 0
-1394 -1442 0
-1394 -1443 0
-1394 -1444 0
-1394 -1445 0
-1394 -1446 0
-1394 -1447 0
-1394 -1448 0
-1394 -1449 0
-1394 -1450 0
-1394 -1451 0
-1394 -1452 0
-1394 -1453 0
-1394 -1454 0
-1394 -1455 0
-1394 -1456 0
-1394 -1457 0
-1394 -1458 0
-1394 -1459 0
-1394 -1460 0
-1394 -1461 0
-1394 -1462 0
-1394 -1463 0
-1395 -1396 0
-1395 -1397 0
-1395 -1398 0
-1395 -1399 0
-1395 -1400 0
-1395 -1401 0
-1395 -1402 0
-1395 -1403 0
-1395 -1404 0
-1395 -1405 0
-1395 -1406 0
-1395 -1407 0
-1395 -1408 0
-1395 -1409 0
-1395 -1410 0
-1395 -1411 0
-1395 -1412 0
-1395 -1413 0
-1395 -1414 0
-1395 -1415 0
-1395 -1416 0
-1395 -1417 0
-1395 -1418 0
-1395 -1419 0
-1395 -1420 0
-1395 -1421 0
-1395 -1422 0
-1395 -1423 0
-1395 -1424 0
-1395 -1425 0
-1395 -1426 0
-1395 -1427 0
-1395 -1428 0
-1395 -1429 0
-1395 -1430 0
-1395 -1431 0
-1395 -1432 0
-1395 -1433 0
-1395 -1434 0
-1395 -1435 0
-1395 -1436 0
-1395 -1437 0
-1395 -1438 0
-1395 -1439 0
-1395 -1440 0
-1395 -1441 0
-1395 -1442 0
-1395 -1443 0
-1395 -1444 0
-1395 -1445 0
-1395 -1446 0
-1395 -1447 0
-1395 -1448 0
-1395 -1449 0
-1395 -1450 0
-1395 -1451 0
-1395 -1452 0
-1395 -1453 0
-1395 -1454 0
-1395 -1455 0
-1395 -1456 0
-1395 -1457 0
-1395 -1458 0
-1395 -1459 0
-1395 -1460 0
-1395 -1461 0
-1395 -1462 0
-1395 -1463 0
-1396 -1397 0
-1396 -1398 0
-1396 -1399 0
-1396 -1400 0
-1396 -1401 0
-1396 -1402 0
-1396 -1403 0
-1396 -1404 0
-1396 -1405 0
-1396 -1406 0
-1396 -1407 0
-1396 -1408 0
-1396 -1409 0
-1396 -1410 0
-1396 -1411 0
-1396 -1412 0
-1396 -1413 0
-1396 -1414 0
-1396 -1415 0
-1396 -1416 0
-1396 -1417 0
-1396 -1418 0
-1396 -1419 0
-1396 -1420 0
-1396 -1421 0
-1396 -1422 0
-1396 -1423 0
-1396 -1424 0
-1396 -1425 0
-1396 -1426 0
-1396 -1427 0
-1396 -1428 0
-1396 -1429 0
-1396 -1430 0
-1396 -1431 0
-1396 -1432 0
-1396 -1433 0
-1396 -1434 0
-1396 -1435 0
-1396 -1436 0
-1396 -1437 0
-1396 -1438 0
-1396 -1439 0
-1396 -1440 0
-1396 -1441 0
-1396 -1442 0
-1396 -1443 0
-1396 -1444 0
-1396 -1445 0
-1396 -1446 0
-1396 -1447 0
-1396 -1448 0
-1396 -1449 0
-1396 -1450 0
-1396 -1451 0
-1396 -1452 0
-1396 -1453 0
-1396 -1454 0
-1396 -1455 0
-1396 -1456 0
-1396 -1457 0
-1396 -1458 0
-1396 -1459 0
-1396 -1460 0
-1396 -1461 0
-1396 -1462 0
-1396 -1463 0
-1397 -1398 0
-1397 -1399 0
-1397 -1400 0
-1397 -1401 0
-1397 -1402 0
-1397 -1403 0
-1397 -1404 0
-1397 -1405 0
-1397 -1406 0
-1397 -1407 0
-1397 -1408 0
-1397 -1409 0
-1397 -1410 0
-1397 -1411 0
-1397 -1412 0
-1397 -1413 0
-1397 -1414 0
-1397 -1415 0
-1397 -1416 0
-1397 -1417 0
-1397 -1418 0
-1397 -1419 0
-1397 -1420 0
-1397 -1421 0
-1397 -1422 0
-1397 -1423 0
-1397 -1424 0
-1397 -1425 0
-1397 -1426 0
-1397 -1427 0
-1397 -1428 0
-1397 -1429 0
-1397 -1430 0
-1397 -1431 0
-1397 -1432 0
-1397 -1433 0
-1397 -1434 0
-1397 -1435 0
-1397 -1436 0
-1397 -1437 0
-1397 -1438 0
-1397 -1439 0
-1397 -1440 0
-1397 -1441 0
-1397 -1442 0
-1397 -1443 0
-1397 -1444 0
-1397 -1445 0
-1397 -1446 0
-1397 -1447 0
-1397 -1448 0
-1397 -1449 0
-1397 -1450 0
-1397 -1451 0
-1397 -1452 0
-1397 -1453 0
-1397 -1454 0
-1397 -1455 0
-1397 -1456 0
-1397 -1457 0
-1397 -1458 0
-1397 -1459 0
-1397 -1460 0
-1397 -1461 0
-1397 -1462 0
-1397 -1463 0
-1398 -1399 0
-1398 -1400 0
-1398 -1401 0
-1398 -1402 0
-1398 -1403 0
-1398 -1404 0
-1398 -1405 0
-1398 -1406 0
-1398 -1407 0
-1398 -1408 0
-1398 -1409 0
-1398 -1410 0
-1398 -1411 0
-1398 -1412 0
-1398 -1413 0
-1398 -1414 0
-1398 -1415 0
-1398 -1416 0
-1398 -1417 0
-1398 -1418 0
-1398 -1419 0
-1398 -1420 0
-1398 -1421 0
-1398 -1422 0
-1398 -1423 0
-1398 -1424 0
-1398 -1425 0
-1398 -1426 0
-1398 -1427 0
-1398 -1428 0
-1398 -1429 0
-1398 -1430 0
-1398 -1431 0
-1398 -1432 0
-1398 -1433 0
-1398 -1434 0
-1398 -1435 0
-1398 -1436 0
-1398 -1437 0
-1398 -1438 0
-1398 -1439 0
-1398 -1440 0
-1398 -1441 0
-1398 -1442 0
-1398 -1443 0
-1398 -1444 0
-1398 -1445 0
-1398 -1446 0
-1398 -1447 0
-1398 -1448 0
-1398 -1449 0
-1398 -1450 0
-1398 -1451 0
-1398 -1452 0
-1398 -1453 0
-1398 -1454 0
-1398 -1455 0
-1398 -1456 0
-1398 -1457 0
-1398 -1458 0
-1398 -1459 0
-1398 -1460 0
-1398 -1461 0
-1398 -1462 0
-1398 -1463 0
-1399 -1400 0
-1399 -1401 0
-1399 -1402 0
-1399 -1403 0
-1399 -1404 0
-1399 -1405 0
-1399 -1406 0
-1399 -1407 0
-1399 -1408 0
-1399 -1409 0
-1399 -1410 0
-1399 -1411 0
-1399 -1412 0
-1399 -1413 0
-1399 -1414 0
-1399 -1415 0
-1399 -1416 0
-1399 -1417 0
-1399 -1418 0
-1399 -1419 0
-1399 -1420 0
-1399 -1421 0
-1399 -1422 0
-1399 -1423 0
-1399 -1424 0
-1399 -1425 0
-1399 -1426 0
-1399 -1427 0
-1399 -1428 0
-1399 -1429 0
-1399 -1430 0
-1399 -1431 0
-1399 -1432 0
-1399 -1433 0
-1399 -1434 0
-1399 -1435 0
-1399 -1436 0
-1399 -1437 0
-1399 -1438 0
-1399 -1439 0
-1399 -1440 0
-1399 -1441 0
-1399 -1442 0
-1399 -1443 0
-1399 -1444 0
-1399 -1445 0
-1399 -1446 0
-1399 -1447 0
-1399 -1448 0
-1399 -1449 0
-1399 -1450 0
-1399 -1451 0
-1399 -1452 0
-1399 -1453 0
-1399 -1454 0
-1399 -1455 0
-1399 -1456 0
-1399 -1457 0
-1399 -1458 0
-1399 -1459 0
-1399 -1460 0
-1399 -1461 0
-1399 -1462 0
-1399 -1463 0
-1400 -1401 0
-1400 -1402 0
-1400 -1403 0
-1400 -1404 0
-1400 -1405 0
-1400 -1406 0
-1400 -1407 0
-1400 -1408 0
-1400 -1409 0
-1400 -1410 0
-1400 -1411 0
-1400 -1412 0
-1400 -1413 0
-1400 -1414 0
-1400 -1415 0
-1400 -1416 0
-1400 -1417 0
-1400 -1418 0
-1400 -1419 0
-1400 -1420 0
-1400 -1421 0
-1400 -1422 0
-1400 -1423 0
-1400 -1424 0
-1400 -1425 0
-1400 -1426 0
-1400 -1427 0
-1400 -1428 0
-1400 -1429 0
-1400 -1430 0
-1400 -1431 0
-1400 -1432 0
-1400 -1433 0
-1400 -1434 0
-1400 -1435 0
-1400 -1436 0
-1400 -1437 0
-1400 -1438 0
-1400 -1439 0
-1400 -1440 0
-1400 -1441 0
-1400 -1442 0
-1400 -1443 0
-1400 -1444 0
-1400 -1445 0
-1400 -1446 0
-1400 -1447 0
-1400 -1448 0
-1400 -1449 0
-1400 -1450 0
-1400 -1451 0
-1400 -1452 0
-1400 -1453 0
-1400 -1454 0
-1400 -1455 0
-1400 -1456 0
-1400 -1457 0
-1400 -1458 0
-1400 -1459 0
-1400 -1460 0
-1400 -1461 0
-1400 -1462 0
-1400 -1463 0
-1401 -1402 0
-1401 -1403 0
-1401 -1404 0
-1401 -1405 0
-1401 -1406 0
-1401 -1407 0
-1401 -1408 0
-1401 -1409 0
-1401 -1410 0
-1401 -1411 0
-1401 -1412 0
-1401 -1413 0
-1401 -1414 0
-1401 -1415 0
-1401 -1416 0
-1401 -1417 0
-1401 -1418 0
-1401 -1419 0
-1401 -1420 0
-1401 -1421 0
-1401 -1422 0
-1401 -1423 0
-1401 -1424 0
-1401 -1425 0
-1401 -1426 0
-1401 -1427 0
-1401 -1428 0
-1401 -1429 0
-1401 -1430 0
-1401 -1431 0
-1401 -1432 0
-1401 -1433 0
-1401 -1434 0
-1401 -1435 0
-1401 -1436 0
-1401 -1437 0
-1401 -1438 0
-1401 -1439 0
-1401 -1440 0
-1401 -1441 0
-1401 -1442 0
-1401 -1443 0
-1401 -1444 0
-1401 -1445 0
-1401 -1446 0
-1401 -1447 0
-1401 -1448 0
-1401 -1449 0
-1401 -1450 0
-1401 -1451 0
-1401 -1452 0
-1401 -1453 0
-1401 -1454 0
-1401 -1455 0
-1401 -1456 0
-1401 -1457 0
-1401 -1458 0
-1401 -1459 0
-1401 -1460 0
-1401 -1461 0
-1401 -1462 0
-1401 -1463 0
-1402 -1403 0
-1402 -1404 0
-1402 -1405 0
-1402 -1406 0
-1402 -1407 0
-1402 -1408 0
-1402 -1409 0
-1402 -1410 0
-1402 -1411 0
-1402 -1412 0
-1402 -1413 0
-1402 -1414 0
-1402 -1415 0
-1402 -1416 0
-1402 -1417 0
-1402 -1418 0
-1402 -1419 0
-1402 -1420 0
-1402 -1421 0
-1402 -1422 0
-1402 -1423 0
-1402 -1424 0
-1402 -1425 0
-1402 -1426 0
-1402 -1427 0
-1402 -1428 0
-1402 -1429 0
-1402 -1430 0
-1402 -1431 0
-1402 -1432 0
-1402 -1433 0
-1402 -1434 0
-1402 -1435 0
-1402 -1436 0
-1402 -1437 0
-1402 -1438 0
-1402 -1439 0
-1402 -1440 0
-1402 -1441 0
-1402 -1442 0
-1402 -1443 0
-1402 -1444 0
-1402 -1445 0
-1402 -1446 0
-1402 -1447 0
-1402 -1448 0
-1402 -1449 0
-1402 -1450 0
-1402 -1451 0
-1402 -1452 0
-1402 -1453 0
-1402 -1454 0
-1402 -1455 0
-1402 -1456 0
-1402 -1457 0
-1402 -1458 0
-1402 -1459 0
-1402 -1460 0
-1402 -1461 0
-1402 -1462 0
-1402 -1463 0
-1403 -1404 0
-1403 -1405 0
-1403 -1406 0
-1403 -1407 0
-1403 -1408 0
-1403 -1409 0
-1403 -1410 0
-1403 -1411 0
-1403 -1412 0
-1403 -1413 0
-1403 -1414 0
-1403 -1415 0
-1403 -1416 0
-1403 -1417 0
-1403 -1418 0
-1403 -1419 0
-1403 -1420 0
-1403 -1421 0
-1403 -1422 0
-1403 -1423 0
-1403 -1424 0
-1403 -1425 0
-1403 -1426 0
-1403 -1427 0
-1403 -1428 0
-1403 -1429 0
-1403 -1430 0
-1403 -1431 0
-1403 -1432 0
-1403 -1433 0
-1403 -1434 0
-1403 -1435 0
-1403 -1436 0
-1403 -1437 0
-1403 -1438 0
-1403 -1439 0
-1403 -1440 0
-1403 -1441 0
-1403 -1442 0
-1403 -1443 0
-1403 -1444 0
-1403 -1445 0
-1403 -1446 0
-1403 -1447 0
-1403 -1448 0
-1403 -1449 0
-1403 -1450 0
-1403 -1451 0
-1403 -1452 0
-1403 -1453 0
-1403 -1454 0
-1403 -1455 0
-1403 -1456 0
-1403 -1457 0
-1403 -1458 0
-1403 -1459 0
-1403 -1460 0
-1403 -1461 0
-1403 -1462 0
-1403 -1463 0
-1404 -1405 0
-1404 -1406 0
-1404 -1407 0
-1404 -1408 0
-1404 -1409 0
-1404 -1410 0
-1404 -1411 0
-1404 -1412 0
-1404 -1413 0
-1404 -1414 0
-1404 -1415 0
-1404 -1416 0
-1404 -1417 0
-1404 -1418 0
-1404 -1419 0
-1404 -1420 0
-1404 -1421 0
-1404 -1422 0
-1404 -1423 0
-1404 -1424 0
-1404 -1425 0
-1404 -1426 0
-1404 -1427 0
-1404 -1428 0
-1404 -1429 0
-1404 -1430 0
-1404 -1431 0
-1404 -1432 0
-1404 -1433 0
-1404 -1434 0
-1404 -1435 0
-1404 -1436 0
-1404 -1437 0
-1404 -1438 0
-1404 -1439 0
-1404 -1440 0
-1404 -1441 0
-1404 -1442 0
-1404 -1443 0
-1404 -1444 0
-1404 -1445 0
-1404 -1446 0
-1404 -1447 0
-1404 -1448 0
-1404 -1449 0
-1404 -1450 0
-1404 -1451 0
-1404 -1452 0
-1404 -1453 0
-1404 -1454 0
-1404 -1455 0
-1404 -1456 0
-1404 -1457 0
-1404 -1458 0
-1404 -1459 0
-1404 -1460 0
-1404 -1461 0
-1404 -1462 0
-1404 -1463 0
-1405 -1406 0
-1405 -1407 0
-1405 -1408 0
-1405 -1409 0
-1405 -1410 0
-1405 -1411 0
-1405 -1412 0
-1405 -1413 0
-1405 -1414 0
-1405 -1415 0
-1405 -1416 0
-1405 -1417 0
-1405 -1418 0
-1405 -1419 0
-1405 -1420 0
-1405 -1421 0
-1405 -1422 0
-1405 -1423 0
-1405 -1424 0
-1405 -1425 0
-1405 -1426 0
-1405 -1427 0
-1405 -1428 0
-1405 -1429 0
-1405 -1430 0
-1405 -1431 0
-1405 -1432 0
-1405 -1433 0
-1405 -1434 0
-1405 -1435 0
-1405 -1436 0
-1405 -1437 0
-1405 -1438 0
-1405 -1439 0
-1405 -1440 0
-1405 -1441 0
-1405 -1442 0
-1405 -1443 0
-1405 -1444 0
-1405 -1445 0
-1405 -1446 0
-1405 -1447 0
-1405 -1448 0
-1405 -1449 0
-1405 -1450 0
-1405 -1451 0
-1405 -1452 0
-1405 -1453 0
-1405 -1454 0
-1405 -1455 0
-1405 -1456 0
-1405 -1457 0
-1405 -1458 0
-1405 -1459 0
-1405 -1460 0
-1405 -1461 0
-1405 -1462 0
-1405 -1463 0
-1406 -1407 0
-1406 -1408 0
-1406 -1409 0
-1406 -1410 0
-1406 -1411 0
-1406 -1412 0
-1406 -1413 0
-1406 -1414 0
-1406 -1415 0
-1406 -1416 0
-1406 -1417 0
-1406 -1418 0
-1406 -1419 0
-1406 -1420 0
-1406 -1421 0
-1406 -1422 0
-1406 -1423 0
-1406 -1424 0
-1406 -1425 0
-1406 -1426 0
-1406 -1427 0
-1406 -1428 0
-1406 -1429 0
-1406 -1430 0
-1406 -1431 0
-1406 -1432 0
-1406 -1433 0
-1406 -1434 0
-1406 -1435 0
-1406 -1436 0
-1406 -1437 0
-1406 -1438 0
-1406 -1439 0
-1406 -1440 0
-1406 -1441 0
-1406 -1442 0
-1406 -1443 0
-1406 -1444 0
-1406 -1445 0
-1406 -1446 0
-1406 -1447 0
-1406 -1448 0
-1406 -1449 0
-1406 -1450 0
-1406 -1451 0
-1406 -1452 0
-1406 -1453 0
-1406 -1454 0
-1406 -1455 0
-1406 -1456 0
-1406 -1457 0
-1406 -1458 0
-1406 -1459 0
-1406 -1460 0
-1406 -1461 0
-1406 -1462 0
-1406 -1463 0
-1407 -1408 0
-1407 -1409 0
-1407 -1410 0
-1407 -1411 0
-1407 -1412 0
-1407 -1413 0
-1407 -1414 0
-1407 -1415 0
-1407 -1416 0
-1407 -1417 0
-1407 -1418 0
-1407 -1419 0
-1407 -1420 0
-1407 -1421 0
-1407 -1422 0
-1407 -1423 0
-1407 -1424 0
-1407 -1425 0
-1407 -1426 0
-1407 -1427 0
-1407 -1428 0
-1407 -1429 0
-1407 -1430 0
-1407 -1431 0
-1407 -1432 0
-1407 -1433 0
-1407 -1434 0
-1407 -1435 0
-1407 -1436 0
-1407 -1437 0
-1407 -1438 0
-1407 -1439 0
-1407 -1440 0
-1407 -1441 0
-1407 -1442 0
-1407 -1443 0
-1407 -1444 0
-1407 -1445 0
-1407 -1446 0
-1407 -1447 0
-1407 -1448 0
-1407 -1449 0
-1407 -1450 0
-1407 -1451 0
-1407 -1452 0
-1407 -1453 0
-1407 -1454 0
-1407 -1455 0
-1407 -1456 0
-1407 -1457 0
-1407 -1458 0
-1407 -1459 0
-1407 -1460 0
-1407 -1461 0
-1407 -1462 0
-1407 -1463 0
-1408 -1409 0
-1408 -1410 0
-1408 -1411 0
-1408 -1412 0
-1408 -1413 0
-1408 -1414 0
-1408 -1415 0
-1408 -1416 0
-1408 -1417 0
-1408 -1418 0
-1408 -1419 0
-1408 -1420 0
-1408 -1421 0
-1408 -1422 0
-1408 -1423 0
-1408 -1424 0
-1408 -1425 0
-1408 -1426 0
-1408 -1427 0
-1408 -1428 0
-1408 -1429 0
-1408 -1430 0
-1408 -1431 0
-1408 -1432 0
-1408 -1433 0
-1408 -1434 0
-1408 -1435 0
-1408 -1436 0
-1408 -1437 0
-1408 -1438 0
-1408 -1439 0
-1408 -1440 0
-1408 -1441 0
-1408 -1442 0
-1408 -1443 0
-1408 -1444 0
-1408 -1445 0
-1408 -1446 0
-1408 -1447 0
-1408 -1448 0
-1408 -1449 0
-1408 -1450 0
-1408 -1451 0
-1408 -1452 0
-1408 -1453 0
-1408 -1454 0
-1408 -1455 0
-1408 -1456 0
-1408 -1457 0
-1408 -1458 0
-1408 -1459 0
-1408 -1460 0
-1408 -1461 0
-1408 -1462 0
-1408 -1463 0
-1409 -1410 0
-1409 -1411 0
-1409 -1412 0
-1409 -1413 0
-1409 -1414 0
-1409 -1415 0
-1409 -1416 0
-1409 -1417 0
-1409 -1418 0
-1409 -1419 0
-1409 -1420 0
-1409 -1421 0
-1409 -1422 0
-1409 -1423 0
-1409 -1424 0
-1409 -1425 0
-1409 -1426 0
-1409 -1427 0
-1409 -1428 0
-1409 -1429 0
-1409 -1430 0
-1409 -1431 0
-1409 -1432 0
-1409 -1433 0
-1409 -1434 0
-1409 -1435 0
-1409 -1436 0
-1409 -1437 0
-1409 -1438 0
-1409 -1439 0
-1409 -1440 0
-1409 -1441 0
-1409 -1442 0
-1409 -1443 0
-1409 -1444 0
-1409 -1445 0
-1409 -1446 0
-1409 -1447 0
-1409 -1448 0
-1409 -1449 0
-1409 -1450 0
-1409 -1451 0
-1409 -1452 0
-1409 -1453 0
-1409 -1454 0
-1409 -1455 0
-1409 -1456 0
-1409 -1457 0
-1409 -1458 0
-1409 -1459 0
-1409 -1460 0
-1409 -1461 0
-1409 -1462 0
-1409 -1463 0
-1410 -1411 0
-1410 -1412 0
-1410 -1413 0
-1410 -1414 0
-1410 -1415 0
-1410 -1416 0
-1410 -1417 0
-1410 -1418 0
-1410 -1419 0
-1410 -1420 0
-1410 -1421 0
-1410 -1422 0
-1410 -1423 0
-1410 -1424 0
-1410 -1425 0
-1410 -1426 0
-1410 -1427 0
-1410 -1428 0
-1410 -1429 0
-1410 -1430 0
-1410 -1431 0
-1410 -1432 0
-1410 -1433 0
-1410 -1434 0
-1410 -1435 0
-1410 -1436 0
-1410 -1437 0
-1410 -1438 0
-1410 -1439 0
-1410 -1440 0
-1410 -1441 0
-1410 -1442 0
-1410 -1443 0
-1410 -1444 0
-1410 -1445 0
-1410 -1446 0
-1410 -1447 0
-1410 -1448 0
-1410 -1449 0
-1410 -1450 0
-1410 -1451 0
-1410 -1452 0
-1410 -1453 0
-1410 -1454 0
-1410 -1455 0
-1410 -1456 0
-1410 -1457 0
-1410 -1458 0
-1410 -1459 0
-1410 -1460 0
-1410 -1461 0
-1410 -1462 0
-1410 -1463 0
-1411 -1412 0
-1411 -1413 0
-1411 -1414 0
-1411 -1415 0
-1411 -1416 0
-1411 -1417 0
-1411 -1418 0
-1411 -1419 0
-1411 -1420 0
-1411 -1421 0
-1411 -1422 0
-1411 -1423 0
-1411 -1424 0
-1411 -1425 0
-1411 -1426 0
-1411 -1427 0
-1411 -1428 0
-1411 -1429 0
-1411 -1430 0
-1411 -1431 0
-1411 -1432 0
-1411 -1433 0
-1411 -1434 0
-1411 -1435 0
-1411 -1436 0
-1411 -1437 0
-1411 -1438 0
-1411 -1439 0
-1411 -1440 0
-1411 -1441 0
-1411 -1442 0
-1411 -1443 0
-1411 -1444 0
-1411 -1445 0
-1411 -1446 0
-1411 -1447 0
-1411 -1448 0
-1411 -1449 0
-1411 -1450 0
-1411 -1451 0
-1411 -1452 0
-1411 -1453 0
-1411 -1454 0
-1411 -1455 0
-1411 -1456 0
-1411 -1457 0
-1411 -1458 0
-1411 -1459 0
-1411 -1460 0
-1411 -1461 0
-1411 -1462 0
-1411 -1463 0
-1412 -1413 0
-1412 -1414 0
-1412 -1415 0
-1412 -1416 0
-1412 -1417 0
-1412 -1418 0
-1412 -1419 0
-1412 -1420 0
-1412 -1421 0
-1412 -1422 0
-1412 -1423 0
-1412 -1424 0
-1412 -1425 0
-1412 -1426 0
-1412 -1427 0
-1412 -1428 0
-1412 -1429 0
-1412 -1430 0
-1412 -1431 0
-1412 -1432 0
-1412 -1433 0
-1412 -1434 0
-1412 -1435 0
-1412 -1436 0
-1412 -1437 0
-1412 -1438 0
-1412 -1439 0
-1412 -1440 0
-1412 -1441 0
-1412 -1442 0
-1412 -1443 0
-1412 -1444 0
-1412 -1445 0
-1412 -1446 0
-1412 -1447 0
-1412 -1448 0
-1412 -1449 0
-1412 -1450 0
-1412 -1451 0
-1412 -1452 0
-1412 -1453 0
-1412 -1454 0
-1412 -1455 0
-1412 -1456 0
-1412 -1457 0
-1412 -1458 0
-1412 -1459 0
-1412 -1460 0
-1412 -1461 0
-1412 -1462 0
-1412 -1463 0
-1413 -1414 0
-1413 -1415 0
-1413 -1416 0
-1413 -1417 0
-1413 -1418 0
-1413 -1419 0
-1413 -1420 0
-1413 -1421 0
-1413 -1422 0
-1413 -1423 0
-1413 -1424 0
-1413 -1425 0
-1413 -1426 0
-1413 -1427 0
-1413 -1428 0
-1413 -1429 0
-1413 -1430 0
-1413 -1431 0
-1413 -1432 0
-1413 -1433 0
-1413 -1434 0
-1413 -1435 0
-1413 -1436 0
-1413 -1437 0
-1413 -1438 0
-1413 -1439 0
-1413 -1440 0
-1413 -1441 0
-1413 -1442 0
-1413 -1443 0
-1413 -1444 0
-1413 -1445 0
-1413 -1446 0
-1413 -1447 0
-1413 -1448 0
-1413 -1449 0
-1413 -1450 0
-1413 -1451 0
-1413 -1452 0
-1413 -1453 0
-1413 -1454 0
-1413 -1455 0
-1413 -1456 0
-1413 -1457 0
-1413 -1458 0
-1413 -1459 0
-1413 -1460 0
-1413 -1461 0
-1413 -1462 0
-1413 -1463 0
-1414 -1415 0
-1414 -1416 0
-1414 -1417 0
-1414 -1418 0
-1414 -1419 0
-1414 -1420 0
-1414 -1421 0
-1414 -1422 0
-1414 -1423 0
-1414 -1424 0
-1414 -1425 0
-1414 -1426 0
-1414 -1427 0
-1414 -1428 0
-1414 -1429 0
-1414 -1430 0
-1414 -1431 0
-1414 -1432 0
-1414 -1433 0
-1414 -1434 0
-1414 -1435 0
-1414 -1436 0
-1414 -1437 0
-1414 -1438 0
-1414 -1439 0
-1414 -1440 0
-1414 -1441 0
-1414 -1442 0
-1414 -1443 0
-1414 -1444 0
-1414 -1445 0
-1414 -1446 0
-1414 -1447 0
-1414 -1448 0
-1414 -1449 0
-1414 -1450 0
-1414 -1451 0
-1414 -1452 0
-1414 -1453 0
-1414 -1454 0
-1414 -1455 0
-1414 -1456 0
-1414 -1457 0
-1414 -1458 0
-1414 -1459 0
-1414 -1460 0
-1414 -1461 0
-1414 -1462 0
-1414 -1463 0
-1415 -1416 0
-1415 -1417 0
-1415 -1418 0
-1415 -1419 0
-1415 -1420 0
-1415 -1421 0
-1415 -1422 0
-1415 -1423 0
-1415 -1424 0
-1415 -1425 0
-1415 -1426 0
-1415 -1427 0
-1415 -1428 0
-1415 -1429 0
-1415 -1430 0
-1415 -1431 0
-1415 -1432 0
-1415 -1433 0
-1415 -1434 0
-1415 -1435 0
-1415 -1436 0
-1415 -1437 0
-1415 -1438 0
-1415 -1439 0
-1415 -1440 0
-1415 -1441 0
-1415 -1442 0
-1415 -1443 0
-1415 -1444 0
-1415 -1445 0
-1415 -1446 0
-1415 -1447 0
-1415 -1448 0
-1415 -1449 0
-1415 -1450 0
-1415 -1451 0
-1415 -1452 0
-1415 -1453 0
-1415 -1454 0
-1415 -1455 0
-1415 -1456 0
-1415 -1457 0
-1415 -1458 0
-1415 -1459 0
-1415 -1460 0
-1415 -1461 0
-1415 -1462 0
-1415 -1463 0
-1416 -1417 0
-1416 -1418 0
-1416 -1419 0
-1416 -1420 0
-1416 -1421 0
-1416 -1422 0
-1416 -1423 0
-1416 -1424 0
-1416 -1425 0
-1416 -1426 0
-1416 -1427 0
-1416 -1428 0
-1416 -1429 0
-1416 -1430 0
-1416 -1431 0
-1416 -1432 0
-1416 -1433 0
-1416 -1434 0
-1416 -1435 0
-1416 -1436 0
-1416 -1437 0
-1416 -1438 0
-1416 -1439 0
-1416 -1440 0
-1416 -1441 0
-1416 -1442 0
-1416 -1443 0
-1416 -1444 0
-1416 -1445 0
-1416 -1446 0
-1416 -1447 0
-1416 -1448 0
-1416 -1449 0
-1416 -1450 0
-1416 -1451 0
-1416 -1452 0
-1416 -1453 0
-1416 -1454 0
-1416 -1455 0
-1416 -1456 0
-1416 -1457 0
-1416 -1458 0
-1416 -1459 0
-1416 -1460 0
-1416 -1461 0
-1416 -1462 0
-1416 -1463 0
-1417 -1418 0
-1417 -1419 0
-1417 -1420 0
-1417 -1421 0
-1417 -1422 0
-1417 -1423 0
-1417 -1424 0
-1417 -1425 0
-1417 -1426 0
-1417 -1427 0
-1417 -1428 0
-1417 -1429 0
-1417 -1430 0
-1417 -1431 0
-1417 -1432 0
-1417 -1433 0
-1417 -1434 0
-1417 -1435 0
-1417 -1436 0
-1417 -1437 0
-1417 -1438 0
-1417 -1439 0
-1417 -1440 0
-1417 -1441 0
-1417 -1442 0
-1417 -1443 0
-1417 -1444 0
-1417 -1445 0
-1417 -1446 0
-1417 -1447 0
-1417 -1448 0
-1417 -1449 0
-1417 -1450 0
-1417 -1451 0
-1417 -1452 0
-1417 -1453 0
-1417 -1454 0
-1417 -1455 0
-1417 -1456 0
-1417 -1457 0
-1417 -1458 0
-1417 -1459 0
-1417 -1460 0
-1417 -1461 0
-1417 -1462 0
-1417 -1463 0
-1418 -1419 0
-1418 -1420 0
-1418 -1421 0
-1418 -1422 0
-1418 -1423 0
-1418 -1424 0
-1418 -1425 0
-1418 -1426 0
-1418 -1427 0
-1418 -1428 0
-1418 -1429 0
-1418 -1430 0
-1418 -1431 0
-1418 -1432 0
-1418 -1433 0
-1418 -1434 0
-1418 -1435 0
-1418 -1436 0
-1418 -1437 0
-1418 -1438 0
-1418 -1439 0
-1418 -1440 0
-1418 -1441 0
-1418 -1442 0
-1418 -1443 0
-1418 -1444 0
-1418 -1445 0
-1418 -1446 0
-1418 -1447 0
-1418 -1448 0
-1418 -1449 0
-1418 -1450 0
-1418 -1451 0
-1418 -1452 0
-1418 -1453 0
-1418 -1454 0
-1418 -1455 0
-1418 -1456 0
-1418 -1457 0
-1418 -1458 0
-1418 -1459 0
-1418 -1460 0
-1418 -1461 0
-1418 -1462 0
-1418 -1463 0
-1419 -1420 0
-1419 -1421 0
-1419 -1422 0
-1419 -1423 0
-1419 -1424 0
-1419 -1425 0
-1419 -1426 0
-1419 -1427 0
-1419 -1428 0
-1419 -1429 0
-1419 -1430 0
-1419 -1431 0
-1419 -1432 0
-1419 -1433 0
-1419 -1434 0
-1419 -1435 0
-1419 -1436 0
-1419 -1437 0
-1419 -1438 0
-1419 -1439 0
-1419 -1440 0
-1419 -1441 0
-1419 -1442 0
-1419 -1443 0
-1419 -1444 0
-1419 -1445 0
-1419 -1446 0
-1419 -1447 0
-1419 -1448 0
-1419 -1449 0
-1419 -1450 0
-1419 -1451 0
-1419 -1452 0
-1419 -1453 0
-1419 -1454 0
-1419 -1455 0
-1419 -1456 0
-1419 -1457 0
-1419 -1458 0
-1419 -1459 0
-1419 -1460 0
-1419 -1461 0
-1419 -1462 0
-1419 -1463 0
-1420 -1421 0
-1420 -1422 0
-1420 -1423 0
-1420 -1424 0
-1420 -1425 0
-1420 -1426 0
-1420 -1427 0
-1420 -1428 0
-1420 -1429 0
-1420 -1430 0
-1420 -1431 0
-1420 -1432 0
-1420 -1433 0
-1420 -1434 0
-1420 -1435 0
-1420 -1436 0
-1420 -1437 0
-1420 -1438 0
-1420 -1439 0
-1420 -1440 0
-1420 -1441 0
-1420 -1442 0
-1420 -1443 0
-1420 -1444 0
-1420 -1445 0
-1420 -1446 0
-1420 -1447 0
-1420 -1448 0
-1420 -1449 0
-1420 -1450 0
-1420 -1451 0
-1420 -1452 0
-1420 -1453 0
-1420 -1454 0
-1420 -1455 0
-1420 -1456 0
-1420 -1457 0
-1420 -1458 0
-1420 -1459 0
-1420 -1460 0
-1420 -1461 0
-1420 -1462 0
-1420 -1463 0
-1421 -1422 0
-1421 -1423 0
-1421 -1424 0
-1421 -1425 0
-1421 -1426 0
-1421 -1427 0
-1421 -1428 0
-1421 -1429 0
-1421 -1430 0
-1421 -1431 0
-1421 -1432 0
-1421 -1433 0
-1421 -1434 0
-1421 -1435 0
-1421 -1436 0
-1421 -1437 0
-1421 -1438 0
-1421 -1439 0
-1421 -1440 0
-1421 -1441 0
-1421 -1442 0
-1421 -1443 0
-1421 -1444 0
-1421 -1445 0
-1421 -1446 0
-1421 -1447 0
-1421 -1448 0
-1421 -1449 0
-1421 -1450 0
-1421 -1451 0
-1421 -1452 0
-1421 -1453 0
-1421 -1454 0
-1421 -1455 0
-1421 -1456 0
-1421 -1457 0
-1421 -1458 0
-1421 -1459 0
-1421 -1460 0
-1421 -1461 0
-1421 -1462 0
-1421 -1463 0
-1422 -1423 0
-1422 -1424 0
-1422 -1425 0
-1422 -1426 0
-1422 -1427 0
-1422 -1428 0
-1422 -1429 0
-1422 -1430 0
-1422 -1431 0
-1422 -1432 0
-1422 -1433 0
-1422 -1434 0
-1422 -1435 0
-1422 -1436 0
-1422 -1437 0
-1422 -1438 0
-1422 -1439 0
-1422 -1440 0
-1422 -1441 0
-1422 -1442 0
-1422 -1443 0
-1422 -1444 0
-1422 -1445 0
-1422 -1446 0
-1422 -1447 0
-1422 -1448 0
-1422 -1449 0
-1422 -1450 0
-1422 -1451 0
-1422 -1452 0
-1422 -1453 0
-1422 -1454 0
-1422 -1455 0
-1422 -1456 0
-1422 -1457 0
-1422 -1458 0
-1422 -1459 0
-1422 -1460 0
-1422 -1461 0
-1422 -1462 0
-1422 -1463 0
-1423 -1424 0
-1423 -1425 0
-1423 -1426 0
-1423 -1427 0
-1423 -1428 0
-1423 -1429 0
-1423 -1430 0
-1423 -1431 0
-1423 -1432 0
-1423 -1433 0
-1423 -1434 0
-1423 -1435 0
-1423 -1436 0
-1423 -1437 0
-1423 -1438 0
-1423 -1439 0
-1423 -1440 0
-1423 -1441 0
-1423 -1442 0
-1423 -1443 0
-1423 -1444 0
-1423 -1445 0
-1423 -1446 0
-1423 -1447 0
-1423 -1448 0
-1423 -1449 0
-1423 -1450 0
-1423 -1451 0
-1423 -1452 0
-1423 -1453 0
-1423 -1454 0
-1423 -1455 0
-1423 -1456 0
-1423 -1457 0
-1423 -1458 0
-1423 -1459 0
-1423 -1460 0
-1423 -1461 0
-1423 -1462 0
-1423 -1463 0
-1424 -1425 0
-1424 -1426 0
-1424 -1427 0
-1424 -1428 0
-1424 -1429 0
-1424 -1430 0
-1424 -1431 0
-1424 -1432 0
-1424 -1433 0
-1424 -1434 0
-1424 -1435 0
-1424 -1436 0
-1424 -1437 0
-1424 -1438 0
-1424 -1439 0
-1424 -1440 0
-1424 -1441 0
-1424 -1442 0
-1424 -1443 0
-1424 -1444 0
-1424 -1445 0
-1424 -1446 0
-1424 -1447 0
-1424 -1448 0
-1424 -1449 0
-1424 -1450 0
-1424 -1451 0
-1424 -1452 0
-1424 -1453 0
-1424 -1454 0
-1424 -1455 0
-1424 -1456 0
-1424 -1457 0
-1424 -1458 0
-1424 -1459 0
-1424 -1460 0
-1424 -1461 0
-1424 -1462 0
-1424 -1463 0
-1425 -1426 0
-1425 -1427 0
-1425 -1428 0
-1425 -1429 0
-1425 -1430 0
-1425 -1431 0
-1425 -1432 0
-1425 -1433 0
-1425 -1434 0
-1425 -1435 0
-1425 -1436 0
-1425 -1437 0
-1425 -1438 0
-1425 -1439 0
-1425 -1440 0
-1425 -1441 0
-1425 -1442 0
-1425 -1443 0
-1425 -1444 0
-1425 -1445 0
-1425 -1446 0
-1425 -1447 0
-1425 -1448 0
-1425 -1449 0
-1425 -1450 0
-1425 -1451 0
-1425 -1452 0
-1425 -1453 0
-1425 -1454 0
-1425 -1455 0
-1425 -1456 0
-1425 -1457 0
-1425 -1458 0
-1425 -1459 0
-1425 -1460 0
-1425 -1461 0
-1425 -1462 0
-1425 -1463 0
-1426 -1427 0
-1426 -1428 0
-1426 -1429 0
-1426 -1430 0
-1426 -1431 0
-1426 -1432 0
-1426 -1433 0
-1426 -1434 0
-1426 -1435 0
-1426 -1436 0
-1426 -1437 0
-1426 -1438 0
-1426 -1439 0
-1426 -1440 0
-1426 -1441 0
-1426 -1442 0
-1426 -1443 0
-1426 -1444 0
-1426 -1445 0
-1426 -1446 0
-1426 -1447 0
-1426 -1448 0
-1426 -1449 0
-1426 -1450 0
-1426 -1451 0
-1426 -1452 0
-1426 -1453 0
-1426 -1454 0
-1426 -1455 0
-1426 -1456 0
-1426 -1457 0
-1426 -1458 0
-1426 -1459 0
-1426 -1460 0
-1426 -1461 0
-1426 -1462 0
-1426 -1463 0
-1427 -1428 0
-1427 -1429 0
-1427 -1430 0
-1427 -1431 0
-1427 -1432 0
-1427 -1433 0
-1427 -1434 0
-1427 -1435 0
-1427 -1436 0
-1427 -1437 0
-1427 -1438 0
-1427 -1439 0
-1427 -1440 0
-1427 -1441 0
-1427 -1442 0
-1427 -1443 0
-1427 -1444 0
-1427 -1445 0
-1427 -1446 0
-1427 -1447 0
-1427 -1448 0
-1427 -1449 0
-1427 -1450 0
-1427 -1451 0
-1427 -1452 0
-1427 -1453 0
-1427 -1454 0
-1427 -1455 0
-1427 -1456 0
-1427 -1457 0
-1427 -1458 0
-1427 -1459 0
-1427 -1460 0
-1427 -1461 0
-1427 -1462 0
-1427 -1463 0
-1428 -1429 0
-1428 -1430 0
-1428 -1431 0
-1428 -1432 0
-1428 -1433 0
-1428 -1434 0
-1428 -1435 0
-1428 -1436 0
-1428 -1437 0
-1428 -1438 0
-1428 -1439 0
-1428 -1440 0
-1428 -1441 0
-1428 -1442 0
-1428 -1443 0
-1428 -1444 0
-1428 -1445 0
-1428 -1446 0
-1428 -1447 0
-1428 -1448 0
-1428 -1449 0
-1428 -1450 0
-1428 -1451 0
-1428 -1452 0
-1428 -1453 0
-1428 -1454 0
-1428 -1455 0
-1428 -1456 0
-1428 -1457 0
-1428 -1458 0
-1428 -1459 0
-1428 -1460 0
-1428 -1461 0
-1428 -1462 0
-1428 -1463 0
-1429 -1430 0
-1429 -1431 0
-1429 -1432 0
-1429 -1433 0
-1429 -1434 0
-1429 -1435 0
-1429 -1436 0
-1429 -1437 0
-1429 -1438 0
-1429 -1439 0
-1429 -1440 0
-1429 -1441 0
-1429 -1442 0
-1429 -1443 0
-1429 -1444 0
-1429 -1445 0
-1429 -1446 0
-1429 -1447 0
-1429 -1448 0
-1429 -1449 0
-1429 -1450 0
-1429 -1451 0
-1429 -1452 0
-1429 -1453 0
-1429 -1454 0
-1429 -1455 0
-1429 -1456 0
-1429 -1457 0
-1429 -1458 0
-1429 -1459 0
-1429 -1460 0
-1429 -1461 0
-1429 -1462 0
-1429 -1463 0
-1430 -1431 0
-1430 -1432 0
-1430 -1433 0
-1430 -1434 0
-1430 -1435 0
-1430 -1436 0
-1430 -1437 0
-1430 -1438 0
-1430 -1439 0
-1430 -1440 0
-1430 -1441 0
-1430 -1442 0
-1430 -1443 0
-1430 -1444 0
-1430 -1445 0
-1430 -1446 0
-1430 -1447 0
-1430 -1448 0
-1430 -1449 0
-1430 -1450 0
-1430 -1451 0
-1430 -1452 0
-1430 -1453 0
-1430 -1454 0
-1430 -1455 0
-1430 -1456 0
-1430 -1457 0
-1430 -1458 0
-1430 -1459 0
-1430 -1460 0
-1430 -1461 0
-1430 -1462 0
-1430 -1463 0
-1431 -1432 0
-1431 -1433 0
-1431 -1434 0
-1431 -1435 0
-1431 -1436 0
-1431 -1437 0
-1431 -1438 0
-1431 -1439 0
-1431 -1440 0
-1431 -1441 0
-1431 -1442 0
-1431 -1443 0
-1431 -1444 0
-1431 -1445 0
-1431 -1446 0
-1431 -1447 0
-1431 -1448 0
-1431 -1449 0
-1431 -1450 0
-1431 -1451 0
-1431 -1452 0
-1431 -1453 0
-1431 -1454 0
-1431 -1455 0
-1431 -1456 0
-1431 -1457 0
-1431 -1458 0
-1431 -1459 0
-1431 -1460 0
-1431 -1461 0
-1431 -1462 0
-1431 -1463 0
-1432 -1433 0
-1432 -1434 0
-1432 -1435 0
-1432 -1436 0
-1432 -1437 0
-1432 -1438 0
-1432 -1439 0
-1432 -1440 0
-1432 -1441 0
-1432 -1442 0
-1432 -1443 0
-1432 -1444 0
-1432 -1445 0
-1432 -1446 0
-1432 -1447 0
-1432 -1448 0
-1432 -1449 0
-1432 -1450 0
-1432 -1451 0
-1432 -1452 0
-1432 -1453 0
-1432 -1454 0
-1432 -1455 0
-1432 -1456 0
-1432 -1457 0
-1432 -1458 0
-1432 -1459 0
-1432 -1460 0
-1432 -1461 0
-1432 -1462 0
-1432 -1463 0
-1433 -1434 0
-1433 -1435 0
-1433 -1436 0
-1433 -1437 0
-1433 -1438 0
-1433 -1439 0
-1433 -1440 0
-1433 -1441 0
-1433 -1442 0
-1433 -1443 0
-1433 -1444 0
-1433 -1445 0
-1433 -1446 0
-1433 -1447 0
-1433 -1448 0
-1433 -1449 0
-1433 -1450 0
-1433 -1451 0
-1433 -1452 0
-1433 -1453 0
-1433 -1454 0
-1433 -1455 0
-1433 -1456 0
-1433 -1457 0
-1433 -1458 0
-1433 -1459 0
-1433 -1460 0
-1433 -1461 0
-1433 -1462 0
-1433 -1463 0
-1434 -1435 0
-1434 -1436 0
-1434 -1437 0
-1434 -1438 0
-1434 -1439 0
-1434 -1440 0
-1434 -1441 0
-1434 -1442 0
-1434 -1443 0
-1434 -1444 0
-1434 -1445 0
-1434 -1446 0
-1434 -1447 0
-1434 -1448 0
-1434 -1449 0
-1434 -1450 0
-1434 -1451 0
-1434 -1452 0
-1434 -1453 0
-1434 -1454 0
-1434 -1455 0
-1434 -1456 0
-1434 -1457 0
-1434 -1458 0
-1434 -1459 0
-1434 -1460 0
-1434 -1461 0
-1434 -1462 0
-1434 -1463 0
-1435 -1436 0
-1435 -1437 0
-1435 -1438 0
-1435 -1439 0
-1435 -1440 0
-1435 -1441 0
-1435 -1442 0
-1435 -1443 0
-1435 -1444 0
-1435 -1445 0
-1435 -1446 0
-1435 -1447 0
-1435 -1448 0
-1435 -1449 0
-1435 -1450 0
-1435 -1451 0
-1435 -1452 0
-1435 -1453 0
-1435 -1454 0
-1435 -1455 0
-1435 -1456 0
-1435 -1457 0
-1435 -1458 0
-1435 -1459 0
-1435 -1460 0
-1435 -1461 0
-1435 -1462 0
-1435 -1463 0
-1436 -1437 0
-1436 -1438 0
-1436 -1439 0
-1436 -1440 0
-1436 -1441 0
-1436 -1442 0
-1436 -1443 0
-1436 -1444 0
-1436 -1445 0
-1436 -1446 0
-1436 -1447 0
-1436 -1448 0
-1436 -1449 0
-1436 -1450 0
-1436 -1451 0
-1436 -1452 0
-1436 -1453 0
-1436 -1454 0
-1436 -1455 0
-1436 -1456 0
-1436 -1457 0
-1436 -1458 0
-1436 -1459 0
-1436 -1460 0
-1436 -1461 0
-1436 -1462 0
-1436 -1463 0
-1437 -1438 0
-1437 -1439 0
-1437 -1440 0
-1437 -1441 0
-1437 -1442 0
-1437 -1443 0
-1437 -1444 0
-1437 -1445 0
-1437 -1446 0
-1437 -1447 0
-1437 -1448 0
-1437 -1449 0
-1437 -1450 0
-1437 -1451 0
-1437 -1452 0
-1437 -1453 0
-1437 -1454 0
-1437 -1455 0
-1437 -1456 0
-1437 -1457 0
-1437 -1458 0
-1437 -1459 0
-1437 -1460 0
-1437 -1461 0
-1437 -1462 0
-1437 -1463 0
-1438 -1439 0
-1438 -1440 0
-1438 -1441 0
-1438 -1442 0
-1438 -1443 0
-1438 -1444 0
-1438 -1445 0
-1438 -1446 0
-1438 -1447 0
-1438 -1448 0
-1438 -1449 0
-1438 -1450 0
-1438 -1451 0
-1438 -1452 0
-1438 -1453 0
-1438 -1454 0
-1438 -1455 0
-1438 -1456 0
-1438 -1457 0
-1438 -1458 0
-1438 -1459 0
-1438 -1460 0
-1438 -1461 0
-1438 -1462 0
-1438 -1463 0
-1439 -1440 0
-1439 -1441 0
-1439 -1442 0
-1439 -1443 0
-1439 -1444 0
-1439 -1445 0
-1439 -1446 0
-1439 -1447 0
-1439 -1448 0
-1439 -1449 0
-1439 -1450 0
-1439 -1451 0
-1439 -1452 0
-1439 -1453 0
-1439 -1454 0
-1439 -1455 0
-1439 -1456 0
-1439 -1457 0
-1439 -1458 0
-1439 -1459 0
-1439 -1460 0
-1439 -1461 0
-1439 -1462 0
-1439 -1463 0
-1440 -1441 0
-1440 -1442 0
-1440 -1443 0
-1440 -1444 0
-1440 -1445 0
-1440 -1446 0
-1440 -1447 0
-1440 -1448 0
-1440 -1449 0
-1440 -1450 0
-1440 -1451 0
-1440 -1452 0
-1440 -1453 0
-1440 -1454 0
-1440 -1455 0
-1440 -1456 0
-1440 -1457 0
-1440 -1458 0
-1440 -1459 0
-1440 -1460 0
-1440 -1461 0
-1440 -1462 0
-1440 -1463 0
-1441 -1442 0
-1441 -1443 0
-1441 -1444 0
-1441 -1445 0
-1441 -1446 0
-1441 -1447 0
-1441 -1448 0
-1441 -1449 0
-1441 -1450 0
-1441 -1451 0
-1441 -1452 0
-1441 -1453 0
-1441 -1454 0
-1441 -1455 0
-1441 -1456 0
-1441 -1457 0
-1441 -1458 0
-1441 -1459 0
-1441 -1460 0
-1441 -1461 0
-1441 -1462 0
-1441 -1463 0
-1442 -1443 0
-1442 -1444 0
-1442 -1445 0
-1442 -1446 0
-1442 -1447 0
-1442 -1448 0
-1442 -1449 0
-1442 -1450 0
-1442 -1451 0
-1442 -1452 0
-1442 -1453 0
-1442 -1454 0
-1442 -1455 0
-1442 -1456 0
-1442 -1457 0
-1442 -1458 0
-1442 -1459 0
-1442 -1460 0
-1442 -1461 0
-1442 -1462 0
-1442 -1463 0
-1443 -1444 0
-1443 -1445 0
-1443 -1446 0
-1443 -1447 0
-1443 -1448 0
-1443 -1449 0
-1443 -1450 0
-1443 -1451 0
-1443 -1452 0
-1443 -1453 0
-1443 -1454 0
-1443 -1455 0
-1443 -1456 0
-1443 -1457 0
-1443 -1458 0
-1443 -1459 0
-1443 -1460 0
-1443 -1461 0
-1443 -1462 0
-1443 -1463 0
-1444 -1445 0
-1444 -1446 0
-1444 -1447 0
-1444 -1448 0
-1444 -1449 0
-1444 -1450 0
-1444 -1451 0
-1444 -1452 0
-1444 -1453 0
-1444 -1454 0
-1444 -1455 0
-1444 -1456 0
-1444 -1457 0
-1444 -1458 0
-1444 -1459 0
-1444 -1460 0
-1444 -1461 0
-1444 -1462 0
-1444 -1463 0
-1445 -1446 0
-1445 -1447 0
-1445 -1448 0
-1445 -1449 0
-1445 -1450 0
-1445 -1451 0
-1445 -1452 0
-1445 -1453 0
-1445 -1454 0
-1445 -1455 0
-1445 -1456 0
-1445 -1457 0
-1445 -1458 0
-1445 -1459 0
-1445 -1460 0
-1445 -1461 0
-1445 -1462 0
-1445 -1463 0
-1446 -1447 0
-1446 -1448 0
-1446 -1449 0
-1446 -1450 0
-1446 -1451 0
-1446 -1452 0
-1446 -1453 0
-1446 -1454 0
-1446 -1455 0
-1446 -1456 0
-1446 -1457 0
-1446 -1458 0
-1446 -1459 0
-1446 -1460 0
-1446 -1461 0
-1446 -1462 0
-1446 -1463 0
-1447 -1448 0
-1447 -1449 0
-1447 -1450 0
-1447 -1451 0
-1447 -1452 0
-1447 -1453 0
-1447 -1454 0
-1447 -1455 0
-1447 -1456 0
-1447 -1457 0
-1447 -1458 0
-1447 -1459 0
-1447 -1460 0
-1447 -1461 0
-1447 -1462 0
-1447 -1463 0
-1448 -1449 0
-1448 -1450 0
-1448 -1451 0
-1448 -1452 0
-1448 -1453 0
-1448 -1454 0
-1448 -1455 0
-1448 -1456 0
-1448 -1457 0
-1448 -1458 0
-1448 -1459 0
-1448 -1460 0
-1448 -1461 0
-1448 -1462 0
-1448 -1463 0
-1449 -1450 0
-1449 -1451 0
-1449 -1452 0
-1449 -1453 0
-1449 -1454 0
-1449 -1455 0
-1449 -1456 0
-1449 -1457 0
-1449 -1458 0
-1449 -1459 0
-1449 -1460 0
-1449 -1461 0
-1449 -1462 0
-1449 -1463 0
-1450 -1451 0
-1450 -1452 0
-1450 -1453 0
-1450 -1454 0
-1450 -1455 0
-1450 -1456 0
-1450 -1457 0
-1450 -1458 0
-1450 -1459 0
-1450 -1460 0
-1450 -1461 0
-1450 -1462 0
-1450 -1463 0
-1451 -1452 0
-1451 -1453 0
-1451 -1454 0
-1451 -1455 0
-1451 -1456 0
-1451 -1457 0
-1451 -1458 0
-1451 -1459 0
-1451 -1460 0
-1451 -1461 0
-1451 -1462 0
-1451 -1463 0
-1452 -1453 0
-1452 -1454 0
-1452 -1455 0
-1452 -1456 0
-1452 -1457 0
-1452 -1458 0
-1452 -1459 0
-1452 -1460 0
-1452 -1461 0
-1452 -1462 0
-1452 -1463 0
-1453 -1454 0
-1453 -1455 0
-1453 -1456 0
-1453 -1457 0
-1453 -1458 0
-1453 -1459 0
-1453 -1460 0
-1453 -1461 0
-1453 -1462 0
-1453 -1463 0
-1454 -1455 0
-1454 -1456 0
-1454 -1457 0
-1454 -1458 0
-1454 -1459 0
-1454 -1460 0
-1454 -1461 0
-1454 -1462 0
-1454 -1463 0
-1455 -1456 0
-1455 -1457 0
-1455 -1458 0
-1455 -1459 0
-1455 -1460 0
-1455 -1461 0
-1455 -1462 0
-1455 -1463 0
-1456 -1457 0
-1456 -1458 0
-1456 -1459 0
-1456 -1460 0
-1456 -1461 0
-1456 -1462 0
-1456 -1463 0
-1457 -1458 0
-1457 -1459 0
-1457 -1460 0
-1457 -1461 0
-1457 -1462 0
-1457 -1463 0
-1458 -1459 0
-1458 -1460 0
-1458 -1461 0
-1458 -1462 0
-1458 -1463 0
-1459 -1460 0
-1459 -1461 0
-1459 -1462 0
-1459 -1463 0
-1460 -1461 0
-1460 -1462 0
-1460 -1463 0
-1461 -1462 0
-1461 -1463 0
-1462 -1463 0
-1380 223 0
-1380 371 0
-1380 -193 0
-1380 -194 0
-1380 -195 0
-1380 -196 0
-1380 -197 0
-1380 -211 393 0
-1380 -211 -276 0
-1380 -211 -300 0
-1380 -211 -324 0
-1380 -211 -186 -208 0
-1380 -212 394 0
-1380 -212 -277 0
-1380 -212 -301 0
-1380 -212 -325 0
-1380 -212 -186 -209 0
-1380 -213 395 0
-1380 -213 -278 0
-1380 -213 -302 0
-1380 -213 -326 0
-1380 -213 -186 -210 0
-1380 -214 0
-1381 223 0
-1381 372 0
-1381 -192 0
-1381 -194 0
-1381 -195 0
-1381 -196 0
-1381 -197 0
-1381 -211 393 0
-1381 -211 -280 0
-1381 -211 -304 0
-1381 -211 -328 0
-1381 -211 -187 -208 0
-1381 -212 394 0
-1381 -212 -281 0
-1381 -212 -305 0
-1381 -212 -329 0
-1381 -212 -187 -209 0
-1381 -213 395 0
-1381 -213 -282 0
-1381 -213 -306 0
-1381 -213 -330 0
-1381 -213 -187 -210 0
-1381 -214 0
-1382 223 0
-1382 373 0
-1382 -192 0
-1382 -193 0
-1382 -195 0
-1382 -196 0
-1382 -197 0
-1382 -211 393 0
-1382 -211 -284 0
-1382 -211 -308 0
-1382 -211 -332 0
-1382 -211 -188 -208 0
-1382 -212 394 0
-1382 -212 -285 0
-1382 -212 -309 0
-1382 -212 -333 0
-1382 -212 -188 -209 0
-1382 -213 395 0
-1382 -213 -286 0
-1382 -213 -310 0
-1382 -213 -334 0
-1382 -213 -188 -210 0
-1382 -214 0
-1383 223 0
-1383 374 0
-1383 -192 0
-1383 -193 0
-1383 -194 0
-1383 -196 0
-1383 -197 0
-1383 -211 393 0
-1383 -211 -288 0
-1383 -211 -312 0
-1383 -211 -336 0
-1383 -211 -189 -208 0
-1383 -212 394 0
-1383 -212 -289 0
-1383 -212 -313 0
-1383 -212 -337 0
-1383 -212 -189 -209 0
-1383 -213 395 0
-1383 -213 -290 0
-1383 -213 -314 0
-1383 -213 -338 0
-1383 -213 -189 -210 0
-1383 -214 0
-1384 223 0
-1384 375 0
-1384 -192 0
-1384 -193 0
-1384 -194 0
-1384 -195 0
-1384 -197 0
-1384 -211 393 0
-1384 -211 -292 0
-1384 -211 -316 0
-1384 -211 -340 0
-1384 -211 -190 -208 0
-1384 -212 394 0
-1384 -212 -293 0
-1384 -212 -317 0
-1384 -212 -341 0
-1384 -212 -190 -209 0
-1384 -213 395 0
-1384 -213 -294 0
-1384 -213 -318 0
-1384 -213 -342 0
-1384 -213 -190 -210 0
-1384 -214 0
-1385 223 0
-1385 376 0
-1385 -192 0
-1385 -193 0
-1385 -194 0
-1385 -195 0
-1385 -196 0
-1385 -211 393 0
-1385 -211 -296 0
-1385 -211 -320 0
-1385 -211 -344 0
-1385 -211 -191 -208 0
-1385 -212 394 0
-1385 -212 -297 0
-1385 -212 -321 0
-1385 -212 -345 0
-1385 -212 -191 -209 0
-1385 -213 395 0
-1385 -213 -298 0
-1385 -213 -322 0
-1385 -213 -346 0
-1385 -213 -191 -210 0
-1385 -214 0
-1386 223 0
-1386 371 0
-1386 -199 0
-1386 -200 0
-1386 -201 0
-1386 -202 0
-1386 -215 393 0
-1386 -215 -276 0
-1386 -215 -300 0
-1386 -215 -324 0
-1386 -215 -186 -208 0
-1386 -216 394 0
-1386 -216 -277 0
-1386 -216 -301 0
-1386 -216 -325 0
-1386 -216 -186 -209 0
-1386 -217 395 0
-1386 -217 -278 0
-1386 -217 -302 0
-1386 -217 -326 0
-1386 -217 -186 -210 0
-1386 -218 0
-1387 223 0
-1387 372 0
-1387 -200 0
-1387 -201 0
-1387 -202 0
-1387 -215 393 0
-1387 -215 -280 0
-1387 -215 -304 0
-1387 -215 -328 0
-1387 -215 -187 -208 0
-1387 -216 394 0
-1387 -216 -281 0
-1387 -216 -305 0
-1387 -216 -329 0
-1387 -216 -187 -209 0
-1387 -217 395 0
-1387 -217 -282 0
-1387 -217 -306 0
-1387 -217 -330 0
-1387 -217 -187 -210 0
-1387 -218 0
-1388 223 0
-1388 373 0
-1388 -198 0
-1388 -201 0
-1388 -202 0
-1388 -215 393 0
-1388 -215 -284 0
-1388 -215 -308 0
-1388 -215 -332 0
-1388 -215 -188 -208 0
-1388 -216 394 0
-1388 -216 -285 0
-1388 -216 -309 0
-1388 -216 -333 0
-1388 -216 -188 -209 0
-1388 -217 395 0
-1388 -217 -286 0
-1388 -217 -310 0
-1388 -217 -334 0
-1388 -217 -188 -210 0
-1388 -218 0
-1389 223 0
-1389 374 0
-1389 -198 0
-1389 -199 0
-1389 -202 0
-1389 -215 393 0
-1389 -215 -288 0
-1389 -215 -312 0
-1389 -215 -336 0
-1389 -215 -189 -208 0
-1389 -216 394 0
-1389 -216 -289 0
-1389 -216 -313 0
-1389 -216 -337 0
-1389 -216 -189 -209 0
-1389 -217 395 0
-1389 -217 -290 0
-1389 -217 -314 0
-1389 -217 -338 0
-1389 -217 -189 -210 0
-1389 -218 0
-1390 223 0
-1390 375 0
-1390 -198 0
-1390 -199 0
-1390 -200 0
-1390 -215 393 0
-1390 -215 -292 0
-1390 -215 -316 0
-1390 -215 -340 0
-1390 -215 -190 -208 0
-1390 -216 394 0
-1390 -216 -293 0
-1390 -216 -317 0
-1390 -216 -341 0
-1390 -216 -190 -209 0
-1390 -217 395 0
-1390 -217 -294 0
-1390 -217 -318 0
-1390 -217 -342 0
-1390 -217 -190 -210 0
-1390 -218 0
-1391 223 0
-1391 376 0
-1391 -198 0
-1391 -199 0
-1391 -200 0
-1391 -201 0
-1391 -215 393 0
-1391 -215 -296 0
-1391 -215 -320 0
-1391 -215 -344 0
-1391 -215 -191 -208 0
-1391 -216 394 0
-1391 -216 -297 0
-1391 -216 -321 0
-1391 -216 -345 0
-1391 -216 -191 -209 0
-1391 -217 395 0
-1391 -217 -298 0
-1391 -217 -322 0
-1391 -217 -346 0
-1391 -217 -191 -210 0
-1391 -218 0
-1392 223 0
-1392 371 0
-1392 -204 0
-1392 -205 0
-1392 -206 0
-1392 -219 393 0
-1392 -219 -276 0
-1392 -219 -300 0
-1392 -219 -324 0
-1392 -219 -186 -208 0
-1392 -220 394 0
-1392 -220 -277 0
-1392 -220 -301 0
-1392 -220 -325 0
-1392 -220 -186 -209 0
-1392 -221 395 0
-1392 -221 -278 0
-1392 -221 -302 0
-1392 -221 -326 0
-1392 -221 -186 -210 0
-1392 -222 0
-1393 223 0
-1393 372 0
-1393 -205 0
-1393 -206 0
-1393 -219 393 0
-1393 -219 -280 0
-1393 -219 -304 0
-1393 -219 -328 0
-1393 -219 -187 -208 0
-1393 -220 394 0
-1393 -220 -281 0
-1393 -220 -305 0
-1393 -220 -329 0
-1393 -220 -187 -209 0
-1393 -221 395 0
-1393 -221 -282 0
-1393 -221 -306 0
-1393 -221 -330 0
-1393 -221 -187 -210 0
-1393 -222 0
-1394 223 0
-1394 373 0
-1394 -206 0
-1394 -219 393 0
-1394 -219 -284 0
-1394 -219 -308 0
-1394 -219 -332 0
-1394 -219 -188 -208 0
-1394 -220 394 0
-1394 -220 -285 0
-1394 -220 -309 0
-1394 -220 -333 0
-1394 -220 -188 -209 0
-1394 -221 395 0
-1394 -221 -286 0
-1394 -221 -310 0
-1394 -221 -334 0
-1394 -221 -188 -210 0
-1394 -222 0
-1395 223 0
-1395 374 0
-1395 -203 0
-1395 -219 393 0
-1395 -219 -288 0
-1395 -219 -312 0
-1395 -219 -336 0
-1395 -219 -189 -208 0
-1395 -220 394 0
-1395 -220 -289 0
-1395 -220 -313 0
-1395 -220 -337 0
-1395 -220 -189 -209 0
-1395 -221 395 0
-1395 -221 -290 0
-1395 -221 -314 0
-1395 -221 -338 0
-1395 -221 -189 -210 0
-1395 -222 0
-1396 223 0
-1396 375 0
-1396 -203 0
-1396 -204 0
-1396 -219 393 0
-1396 -219 -292 0
-1396 -219 -316 0
-1396 -219 -340 0
-1396 -219 -190 -208 0
-1396 -220 394 0
-1396 -220 -293 0
-1396 -220 -317 0
-1396 -220 -341 0
-1396 -220 -190 -209 0
-1396 -221 395 0
-1396 -221 -294 0
-1396 -221 -318 0
-1396 -221 -342 0
-1396 -221 -190 -210 0
-1396 -222 0
-1397 223 0
-1397 376 0
-1397 -203 0
-1397 -204 0
-1397 -205 0
-1397 -219 393 0
-1397 -219 -296 0
-1397 -219 -320 0
-1397 -219 -344 0
-1397 -219 -191 -208 0
-1397 -220 394 0
-1397 -220 -297 0
-1397 -220 -321 0
-1397 -220 -345 0
-1397 -220 -191 -209 0
-1397 -221 395 0
-1397 -221 -298 0
-1397 -221 -322 0
-1397 -221 -346 0
-1397 -221 -191 -210 0
-1397 -222 0
-1398 223 0
-1398 371 0
-1398 392 0
-1398 -275 0
-1398 -299 0
-1398 -323 0
-1398 -186 -207 0
-1399 223 0
-1399 372 0
-1399 392 0
-1399 -279 0
-1399 -303 0
-1399 -327 0
-1399 -187 -207 0
-1400 223 0
-1400 373 0
-1400 392 0
-1400 -283 0
-1400 -307 0
-1400 -331 0
-1400 -188 -207 0
-1401 223 0
-1401 374 0
-1401 392 0
-1401 -287 0
-1401 -311 0
-1401 -335 0
-1401 -189 -207 0
-1402 223 0
-1402 375 0
-1402 392 0
-1402 -291 0
-1402 -315 0
-1402 -339 0
-1402 -190 -207 0
-1403 223 0
-1403 376 0
-1403 392 0
-1403 -295 0
-1403 -319 0
-1403 -343 0
-1403 -191 -207 0
-1404 224 0
-1404 377 0
-1404 -187 0
-1404 -188 0
-1404 -189 0
-1404 -190 0
-1404 -191 0
-1404 -207 397 0
-1404 -207 -252 0
-1404 -207 -300 0
-1404 -207 -324 0
-1404 -207 -192 -212 0
-1404 -208 398 0
-1404 -208 -253 0
-1404 -208 -301 0
-1404 -208 -325 0
-1404 -208 -192 -213 0
-1404 -209 399 0
-1404 -209 -254 0
-1404 -209 -302 0
-1404 -209 -326 0
-1404 -209 -192 -214 0
-1404 -210 0
-1405 224 0
-1405 378 0
-1405 -186 0
-1405 -188 0
-1405 -189 0
-1405 -190 0
-1405 -191 0
-1405 -207 397 0
-1405 -207 -256 0
-1405 -207 -304 0
-1405 -207 -328 0
-1405 -207 -193 -212 0
-1405 -208 398 0
-1405 -208 -257 0
-1405 -208 -305 0
-1405 -208 -329 0
-1405 -208 -193 -213 0
-1405 -209 399 0
-1405 -209 -258 0
-1405 -209 -306 0
-1405 -209 -330 0
-1405 -209 -193 -214 0
-1405 -210 0
-1406 224 0
-1406 379 0
-1406 -186 0
-1406 -187 0
-1406 -189 0
-1406 -190 0
-1406 -191 0
-1406 -207 397 0
-1406 -207 -260 0
-1406 -207 -308 0
-1406 -207 -332 0
-1406 -207 -194 -212 0
-1406 -208 398 0
-1406 -208 -261 0
-1406 -208 -309 0
-1406 -208 -333 0
-1406 -208 -194 -213 0
-1406 -209 399 0
-1406 -209 -262 0
-1406 -209 -310 0
-1406 -209 -334 0
-1406 -209 -194 -214 0
-1406 -210 0
-1407 224 0
-1407 380 0
-1407 -186 0
-1407 -187 0
-1407 -188 0
-1407 -190 0
-1407 -191 0
-1407 -207 397 0
-1407 -207 -264 0
-1407 -207 -312 0
-1407 -207 -336 0
-1407 -207 -195 -212 0
-1407 -208 398 0
-1407 -208 -265 0
-1407 -208 -313 0
-1407 -208 -337 0
-1407 -208 -195 -213 0
-1407 -209 399 0
-1407 -209 -266 0
-1407 -209 -314 0
-1407 -209 -338 0
-1407 -209 -195 -214 0
-1407 -210 0
-1408 224 0
-1408 381 0
-1408 -186 0
-1408 -187 0
-1408 -188 0
-1408 -189 0
-1408 -191 0
-1408 -207 397 0
-1408 -207 -268 0
-1408 -207 -316 0
-1408 -207 -340 0
-1408 -207 -196 -212 0
-1408 -208 398 0
-1408 -208 -269 0
-1408 -208 -317 0
-1408 -208 -341 0
-1408 -208 -196 -213 0
-1408 -209 399 0
-1408 -209 -270 0
-1408 -209 -318 0
-1408 -209 -342 0
-1408 -209 -196 -214 0
-1408 -210 0
-1409 224 0
-1409 382 0
-1409 -186 0
-1409 -187 0
-1409 -188 0
-1409 -189 0
-1409 -190 0
-1409 -207 397 0
-1409 -207 -272 0
-1409 -207 -320 0
-1409 -207 -344 0
-1409 -207 -197 -212 0
-1409 -208 398 0
-1409 -208 -273 0
-1409 -208 -321 0
-1409 -208 -345 0
-1409 -208 -197 -213 0
-1409 -209 399 0
-1409 -209 -274 0
-1409 -209 -322 0
-1409 -209 -346 0
-1409 -209 -197 -214 0
-1409 -210 0
-1410 224 0
-1410 377 0
-1410 -199 0
-1410 -200 0
-1410 -201 0
-1410 -202 0
-1410 -215 397 0
-1410 -215 -252 0
-1410 -215 -300 0
-1410 -215 -324 0
-1410 -215 -192 -212 0
-1410 -216 398 0
-1410 -216 -253 0
-1410 -216 -301 0
-1410 -216 -325 0
-1410 -216 -192 -213 0
-1410 -217 399 0
-1410 -217 -254 0
-1410 -217 -302 0
-1410 -217 -326 0
-1410 -217 -192 -214 0
-1410 -218 0
-1411 224 0
-1411 378 0
-1411 -200 0
-1411 -201 0
-1411 -202 0
-1411 -215 397 0
-1411 -215 -256 0
-1411 -215 -304 0
-1411 -215 -328 0
-1411 -215 -193 -212 0
-1411 -216 398 0
-1411 -216 -257 0
-1411 -216 -305 0
-1411 -216 -329 0
-1411 -216 -193 -213 0
-1411 -217 399 0
-1411 -217 -258 0
-1411 -217 -306 0
-1411 -217 -330 0
-1411 -217 -193 -214 0
-1411 -218 0
-1412 224 0
-1412 379 0
-1412 -198 0
-1412 -201 0
-1412 -202 0
-1412 -215 397 0
-1412 -215 -260 0
-1412 -215 -308 0
-1412 -215 -332 0
-1412 -215 -194 -212 0
-1412 -216 398 0
-1412 -216 -261 0
-1412 -216 -309 0
-1412 -216 -333 0
-1412 -216 -194 -213 0
-1412 -217 399 0
-1412 -217 -262 0
-1412 -217 -310 0
-1412 -217 -334 0
-1412 -217 -194 -214 0
-1412 -218 0
-1413 224 0
-1413 380 0
-1413 -198 0
-1413 -199 0
-1413 -202 0
-1413 -215 397 0
-1413 -215 -264 0
-1413 -215 -312 0
-1413 -215 -336 0
-1413 -215 -195 -212 0
-1413 -216 398 0
-1413 -216 -265 0
-1413 -216 -313 0
-1413 -216 -337 0
-1413 -216 -195 -213 0
-1413 -217 399 0
-1413 -217 -266 0
-1413 -217 -314 0
-1413 -217 -338 0
-1413 -217 -195 -214 0
-1413 -218 0
-1414 224 0
-1414 381 0
-1414 -198 0
-1414 -199 0
-1414 -200 0
-1414 -215 397 0
-1414 -215 -268 0
-1414 -215 -316 0
-1414 -215 -340 0
-1414 -215 -196 -212 0
-1414 -216 398 0
-1414 -216 -269 0
-1414 -216 -317 0
-1414 -216 -341 0
-1414 -216 -196 -213 0
-1414 -217 399 0
-1414 -217 -270 0
-1414 -217 -318 0
-1414 -217 -342 0
-1414 -217 -196 -214 0
-1414 -218 0
-1415 224 0
-1415 382 0
-1415 -198 0
-1415 -199 0
-1415 -200 0
-1415 -201 0
-1415 -215 397 0
-1415 -215 -272 0
-1415 -215 -320 0
-1415 -215 -344 0
-1415 -215 -197 -212 0
-1415 -216 398 0
-1415 -216 -273 0
-1415 -216 -321 0
-1415 -216 -345 0
-1415 -216 -197 -213 0
-1415 -217 399 0
-1415 -217 -274 0
-1415 -217 -322 0
-1415 -217 -346 0
-1415 -217 -197 -214 0
-1415 -218 0
-1416 224 0
-1416 377 0
-1416 -204 0
-1416 -205 0
-1416 -206 0
-1416 -219 397 0
-1416 -219 -252 0
-1416 -219 -300 0
-1416 -219 -324 0
-1416 -219 -192 -212 0
-1416 -220 398 0
-1416 -220 -253 0
-1416 -220 -301 0
-1416 -220 -325 0
-1416 -220 -192 -213 0
-1416 -221 399 0
-1416 -221 -254 0
-1416 -221 -302 0
-1416 -221 -326 0
-1416 -221 -192 -214 0
-1416 -222 0
-1417 224 0
-1417 378 0
-1417 -205 0
-1417 -206 0
-1417 -219 397 0
-1417 -219 -256 0
-1417 -219 -304 0
-1417 -219 -328 0
-1417 -219 -193 -212 0
-1417 -220 398 0
-1417 -220 -257 0
-1417 -220 -305 0
-1417 -220 -329 0
-1417 -220 -193 -213 0
-1417 -221 399 0
-1417 -221 -258 0
-1417 -221 -306 0
-1417 -221 -330 0
-1417 -221 -193 -214 0
-1417 -222 0
-1418 224 0
-1418 379 0
-1418 -206 0
-1418 -219 397 0
-1418 -219 -260 0
-1418 -219 -308 0
-1418 -219 -332 0
-1418 -219 -194 -212 0
-1418 -220 398 0
-1418 -220 -261 0
-1418 -220 -309 0
-1418 -220 -333 0
-1418 -220 -194 -213 0
-1418 -221 399 0
-1418 -221 -262 0
-1418 -221 -310 0
-1418 -221 -334 0
-1418 -221 -194 -214 0
-1418 -222 0
-1419 224 0
-1419 380 0
-1419 -203 0
-1419 -219 397 0
-1419 -219 -264 0
-1419 -219 -312 0
-1419 -219 -336 0
-1419 -219 -195 -212 0
-1419 -220 398 0
-1419 -220 -265 0
-1419 -220 -313 0
-1419 -220 -337 0
-1419 -220 -195 -213 0
-1419 -221 399 0
-1419 -221 -266 0
-1419 -221 -314 0
-1419 -221 -338 0
-1419 -221 -195 -214 0
-1419 -222 0
-1420 224 0
-1420 381 0
-1420 -203 0
-1420 -204 0
-1420 -219 397 0
-1420 -219 -268 0
-1420 -219 -316 0
-1420 -219 -340 0
-1420 -219 -196 -212 0
-1420 -220 398 0
-1420 -220 -269 0
-1420 -220 -317 0
-1420 -220 -341 0
-1420 -220 -196 -213 0
-1420 -221 399 0
-1420 -221 -270 0
-1420 -221 -318 0
-1420 -221 -342 0
-1420 -221 -196 -214 0
-1420 -222 0
-1421 224 0
-1421 382 0
-1421 -203 0
-1421 -204 0
-1421 -205 0
-1421 -219 397 0
-1421 -219 -272 0
-1421 -219 -320 0
-1421 -219 -344 0
-1421 -219 -197 -212 0
-1421 -220 398 0
-1421 -220 -273 0
-1421 -220 -321 0
-1421 -220 -345 0
-1421 -220 -197 -213 0
-1421 -221 399 0
-1421 -221 -274 0
-1421 -221 -322 0
-1421 -221 -346 0
-1421 -221 -197 -214 0
-1421 -222 0
-1422 224 0
-1422 377 0
-1422 396 0
-1422 -251 0
-1422 -299 0
-1422 -323 0
-1422 -192 -211 0
-1423 224 0
-1423 378 0
-1423 396 0
-1423 -255 0
-1423 -303 0
-1423 -327 0
-1423 -193 -211 0
-1424 224 0
-1424 379 0
-1424 396 0
-1424 -259 0
-1424 -307 0
-1424 -331 0
-1424 -194 -211 0
-1425 224 0
-1425 380 0
-1425 396 0
-1425 -263 0
-1425 -311 0
-1425 -335 0
-1425 -195 -211 0
-1426 224 0
-1426 381 0
-1426 396 0
-1426 -267 0
-1426 -315 0
-1426 -339 0
-1426 -196 -211 0
-1427 224 0
-1427 382 0
-1427 396 0
-1427 -271 0
-1427 -319 0
-1427 -343 0
-1427 -197 -211 0
-1428 225 0
-1428 383 0
-1428 -188 0
-1428 -189 0
-1428 -190 0
-1428 -191 0
-1428 -207 401 0
-1428 -207 -252 0
-1428 -207 -256 0
-1428 -207 -276 0
-1428 -207 -280 0
-1428 -207 -324 0
-1428 -207 -328 0
-1428 -207 -198 -216 0
-1428 -208 402 0
-1428 -208 -253 0
-1428 -208 -257 0
-1428 -208 -277 0
-1428 -208 -281 0
-1428 -208 -325 0
-1428 -208 -329 0
-1428 -208 -198 -217 0
-1428 -209 403 0
-1428 -209 -254 0
-1428 -209 -258 0
-1428 -209 -278 0
-1428 -209 -282 0
-1428 -209 -326 0
-1428 -209 -330 0
-1428 -209 -198 -218 0
-1428 -210 0
-1429 225 0
-1429 384 0
-1429 -186 0
-1429 -189 0
-1429 -190 0
-1429 -191 0
-1429 -207 401 0
-1429 -207 -256 0
-1429 -207 -260 0
-1429 -207 -280 0
-1429 -207 -284 0
-1429 -207 -328 0
-1429 -207 -332 0
-1429 -207 -199 -216 0
-1429 -208 402 0
-1429 -208 -257 0
-1429 -208 -261 0
-1429 -208 -281 0
-1429 -208 -285 0
-1429 -208 -329 0
-1429 -208 -333 0
-1429 -208 -199 -217 0
-1429 -209 403 0
-1429 -209 -258 0
-1429 -209 -262 0
-1429 -209 -282 0
-1429 -209 -286 0
-1429 -209 -330 0
-1429 -209 -334 0
-1429 -209 -199 -218 0
-1429 -210 0
-1430 225 0
-1430 385 0
-1430 -186 0
-1430 -187 0
-1430 -190 0
-1430 -191 0
-1430 -207 401 0
-1430 -207 -260 0
-1430 -207 -264 0
-1430 -207 -284 0
-1430 -207 -288 0
-1430 -207 -332 0
-1430 -207 -336 0
-1430 -207 -200 -216 0
-1430 -208 402 0
-1430 -208 -261 0
-1430 -208 -265 0
-1430 -208 -285 0
-1430 -208 -289 0
-1430 -208 -333 0
-1430 -208 -337 0
-1430 -208 -200 -217 0
-1430 -209 403 0
-1430 -209 -262 0
-1430 -209 -266 0
-1430 -209 -286 0
-1430 -209 -290 0
-1430 -209 -334 0
-1430 -209 -338 0
-1430 -209 -200 -218 0
-1430 -210 0
-1431 225 0
-1431 386 0
-1431 -186 0
-1431 -187 0
-1431 -188 0
-1431 -191 0
-1431 -207 401 0
-1431 -207 -264 0
-1431 -207 -268 0
-1431 -207 -288 0
-1431 -207 -292 0
-1431 -207 -336 0
-1431 -207 -340 0
-1431 -207 -201 -216 0
-1431 -208 402 0
-1431 -208 -265 0
-1431 -208 -269 0
-1431 -208 -289 0
-1431 -208 -293 0
-1431 -208 -337 0
-1431 -208 -341 0
-1431 -208 -201 -217 0
-1431 -209 403 0
-1431 -209 -266 0
-1431 -209 -270 0
-1431 -209 -290 0
-1431 -209 -294 0
-1431 -209 -338 0
-1431 -209 -342 0
-1431 -209 -201 -218 0
-1431 -210 0
-1432 225 0
-1432 387 0
-1432 -186 0
-1432 -187 0
-1432 -188 0
-1432 -189 0
-1432 -207 401 0
-1432 -207 -268 0
-1432 -207 -272 0
-1432 -207 -292 0
-1432 -207 -296 0
-1432 -207 -340 0
-1432 -207 -344 0
-1432 -207 -202 -216 0
-1432 -208 402 0
-1432 -208 -269 0
-1432 -208 -273 0
-1432 -208 -293 0
-1432 -208 -297 0
-1432 -208 -341 0
-1432 -208 -345 0
-1432 -208 -202 -217 0
-1432 -209 403 0
-1432 -209 -270 0
-1432 -209 -274 0
-1432 -209 -294 0
-1432 -209 -298 0
-1432 -209 -342 0
-1432 -209 -346 0
-1432 -209 -202 -218 0
-1432 -210 0
-1433 225 0
-1433 383 0
-1433 -194 0
-1433 -195 0
-1433 -196 0
-1433 -197 0
-1433 -211 401 0
-1433 -211 -252 0
-1433 -211 -256 0
-1433 -211 -276 0
-1433 -211 -280 0
-1433 -211 -324 0
-1433 -211 -328 0
-1433 -211 -198 -216 0
-1433 -212 402 0
-1433 -212 -253 0
-1433 -212 -257 0
-1433 -212 -277 0
-1433 -212 -281 0
-1433 -212 -325 0
-1433 -212 -329 0
-1433 -212 -198 -217 0
-1433 -213 403 0
-1433 -213 -254 0
-1433 -213 -258 0
-1433 -213 -278 0
-1433 -213 -282 0
-1433 -213 -326 0
-1433 -213 -330 0
-1433 -213 -198 -218 0
-1433 -214 0
-1434 225 0
-1434 384 0
-1434 -192 0
-1434 -195 0
-1434 -196 0
-1434 -197 0
-1434 -211 401 0
-1434 -211 -256 0
-1434 -211 -260 0
-1434 -211 -280 0
-1434 -211 -284 0
-1434 -211 -328 0
-1434 -211 -332 0
-1434 -211 -199 -216 0
-1434 -212 402 0
-1434 -212 -257 0
-1434 -212 -261 0
-1434 -212 -281 0
-1434 -212 -285 0
-1434 -212 -329 0
-1434 -212 -333 0
-1434 -212 -199 -217 0
-1434 -213 403 0
-1434 -213 -258 0
-1434 -213 -262 0
-1434 -213 -282 0
-1434 -213 -286 0
-1434 -213 -330 0
-1434 -213 -334 0
-1434 -213 -199 -218 0
-1434 -214 0
-1435 225 0
-1435 385 0
-1435 -192 0
-1435 -193 0
-1435 -196 0
-1435 -197 0
-1435 -211 401 0
-1435 -211 -260 0
-1435 -211 -264 0
-1435 -211 -284 0
-1435 -211 -288 0
-1435 -211 -332 0
-1435 -211 -336 0
-1435 -211 -200 -216 0
-1435 -212 402 0
-1435 -212 -261 0
-1435 -212 -265 0
-1435 -212 -285 0
-1435 -212 -289 0
-1435 -212 -333 0
-1435 -212 -337 0
-1435 -212 -200 -217 0
-1435 -213 403 0
-1435 -213 -262 0
-1435 -213 -266 0
-1435 -213 -286 0
-1435 -213 -290 0
-1435 -213 -334 0
-1435 -213 -338 0
-1435 -213 -200 -218 0
-1435 -214 0
-1436 225 0
-1436 386 0
-1436 -192 0
-1436 -193 0
-1436 -194 0
-1436 -197 0
-1436 -211 401 0
-1436 -211 -264 0
-1436 -211 -268 0
-1436 -211 -288 0
-1436 -211 -292 0
-1436 -211 -336 0
-1436 -211 -340 0
-1436 -211 -201 -216 0
-1436 -212 402 0
-1436 -212 -265 0
-1436 -212 -269 0
-1436 -212 -289 0
-1436 -212 -293 0
-1436 -212 -337 0
-1436 -212 -341 0
-1436 -212 -201 -217 0
-1436 -213 403 0
-1436 -213 -266 0
-1436 -213 -270 0
-1436 -213 -290 0
-1436 -213 -294 0
-1436 -213 -338 0
-1436 -213 -342 0
-1436 -213 -201 -218 0
-1436 -214 0
-1437 225 0
-1437 387 0
-1437 -192 0
-1437 -193 0
-1437 -194 0
-1437 -195 0
-1437 -211 401 0
-1437 -211 -268 0
-1437 -211 -272 0
-1437 -211 -292 0
-1437 -211 -296 0
-1437 -211 -340 0
-1437 -211 -344 0
-1437 -211 -202 -216 0
-1437 -212 402 0
-1437 -212 -269 0
-1437 -212 -273 0
-1437 -212 -293 0
-1437 -212 -297 0
-1437 -212 -341 0
-1437 -212 -345 0
-1437 -212 -202 -217 0
-1437 -213 403 0
-1437 -213 -270 0
-1437 -213 -274 0
-1437 -213 -294 0
-1437 -213 -298 0
-1437 -213 -342 0
-1437 -213 -346 0
-1437 -213 -202 -218 0
-1437 -214 0
-1438 225 0
-1438 383 0
-1438 -205 0
-1438 -206 0
-1438 -219 401 0
-1438 -219 -252 0
-1438 -219 -256 0
-1438 -219 -276 0
-1438 -219 -280 0
-1438 -219 -324 0
-1438 -219 -328 0
-1438 -219 -198 -216 0
-1438 -220 402 0
-1438 -220 -253 0
-1438 -220 -257 0
-1438 -220 -277 0
-1438 -220 -281 0
-1438 -220 -325 0
-1438 -220 -329 0
-1438 -220 -198 -217 0
-1438 -221 403 0
-1438 -221 -254 0
-1438 -221 -258 0
-1438 -221 -278 0
-1438 -221 -282 0
-1438 -221 -326 0
-1438 -221 -330 0
-1438 -221 -198 -218 0
-1438 -222 0
-1439 225 0
-1439 384 0
-1439 -206 0
-1439 -219 401 0
-1439 -219 -256 0
-1439 -219 -260 0
-1439 -219 -280 0
-1439 -219 -284 0
-1439 -219 -328 0
-1439 -219 -332 0
-1439 -219 -199 -216 0
-1439 -220 402 0
-1439 -220 -257 0
-1439 -220 -261 0
-1439 -220 -281 0
-1439 -220 -285 0
-1439 -220 -329 0
-1439 -220 -333 0
-1439 -220 -199 -217 0
-1439 -221 403 0
-1439 -221 -258 0
-1439 -221 -262 0
-1439 -221 -282 0
-1439 -221 -286 0
-1439 -221 -330 0
-1439 -221 -334 0
-1439 -221 -199 -218 0
-1439 -222 0
-1440 225 0
-1440 385 0
-1440 -219 401 0
-1440 -219 -260 0
-1440 -219 -264 0
-1440 -219 -284 0
-1440 -219 -288 0
-1440 -219 -332 0
-1440 -219 -336 0
-1440 -219 -200 -216 0
-1440 -220 402 0
-1440 -220 -261 0
-1440 -220 -265 0
-1440 -220 -285 0
-1440 -220 -289 0
-1440 -220 -333 0
-1440 -220 -337 0
-1440 -220 -200 -217 0
-1440 -221 403 0
-1440 -221 -262 0
-1440 -221 -266 0
-1440 -221 -286 0
-1440 -221 -290 0
-1440 -221 -334 0
-1440 -221 -338 0
-1440 -221 -200 -218 0
-1440 -222 0
-1441 225 0
-1441 386 0
-1441 -203 0
-1441 -219 401 0
-1441 -219 -264 0
-1441 -219 -268 0
-1441 -219 -288 0
-1441 -219 -292 0
-1441 -219 -336 0
-1441 -219 -340 0
-1441 -219 -201 -216 0
-1441 -220 402 0
-1441 -220 -265 0
-1441 -220 -269 0
-1441 -220 -289 0
-1441 -220 -293 0
-1441 -220 -337 0
-1441 -220 -341 0
-1441 -220 -201 -217 0
-1441 -221 403 0
-1441 -221 -266 0
-1441 -221 -270 0
-1441 -221 -290 0
-1441 -221 -294 0
-1441 -221 -338 0
-1441 -221 -342 0
-1441 -221 -201 -218 0
-1441 -222 0
-1442 225 0
-1442 387 0
-1442 -203 0
-1442 -204 0
-1442 -219 401 0
-1442 -219 -268 0
-1442 -219 -272 0
-1442 -219 -292 0
-1442 -219 -296 0
-1442 -219 -340 0
-1442 -219 -344 0
-1442 -219 -202 -216 0
-1442 -220 402 0
-1442 -220 -269 0
-1442 -220 -273 0
-1442 -220 -293 0
-1442 -220 -297 0
-1442 -220 -341 0
-1442 -220 -345 0
-1442 -220 -202 -217 0
-1442 -221 403 0
-1442 -221 -270 0
-1442 -221 -274 0
-1442 -221 -294 0
-1442 -221 -298 0
-1442 -221 -342 0
-1442 -221 -346 0
-1442 -221 -202 -218 0
-1442 -222 0
-1443 225 0
-1443 383 0
-1443 400 0
-1443 -251 0
-1443 -255 0
-1443 -275 0
-1443 -279 0
-1443 -323 0
-1443 -327 0
-1443 -198 -215 0
-1444 225 0
-1444 384 0
-1444 400 0
-1444 -255 0
-1444 -259 0
-1444 -279 0
-1444 -283 0
-1444 -327 0
-1444 -331 0
-1444 -199 -215 0
-1445 225 0
-1445 385 0
-1445 400 0
-1445 -259 0
-1445 -263 0
-1445 -283 0
-1445 -287 0
-1445 -331 0
-1445 -335 0
-1445 -200 -215 0
-1446 225 0
-1446 386 0
-1446 400 0
-1446 -263 0
-1446 -267 0
-1446 -287 0
-1446 -291 0
-1446 -335 0
-1446 -339 0
-1446 -201 -215 0
-1447 225 0
-1447 387 0
-1447 400 0
-1447 -267 0
-1447 -271 0
-1447 -291 0
-1447 -295 0
-1447 -339 0
-1447 -343 0
-1447 -202 -215 0
-1448 226 0
-1448 388 0
-1448 -189 0
-1448 -190 0
-1448 -191 0
-1448 -207 405 0
-1448 -207 -252 0
-1448 -207 -256 0
-1448 -207 -260 0
-1448 -207 -276 0
-1448 -207 -280 0
-1448 -207 -284 0
-1448 -207 -300 0
-1448 -207 -304 0
-1448 -207 -308 0
-1448 -207 -203 -220 0
-1448 -208 406 0
-1448 -208 -253 0
-1448 -208 -257 0
-1448 -208 -261 0
-1448 -208 -277 0
-1448 -208 -281 0
-1448 -208 -285 0
-1448 -208 -301 0
-1448 -208 -305 0
-1448 -208 -309 0
-1448 -208 -203 -221 0
-1448 -209 407 0
-1448 -209 -254 0
-1448 -209 -258 0
-1448 -209 -262 0
-1448 -209 -278 0
-1448 -209 -282 0
-1448 -209 -286 0
-1448 -209 -302 0
-1448 -209 -306 0
-1448 -209 -310 0
-1448 -209 -203 -222 0
-1448 -210 0
-1449 226 0
-1449 389 0
-1449 -186 0
-1449 -190 0
-1449 -191 0
-1449 -207 405 0
-1449 -207 -256 0
-1449 -207 -260 0
-1449 -207 -264 0
-1449 -207 -280 0
-1449 -207 -284 0
-1449 -207 -288 0
-1449 -207 -304 0
-1449 -207 -308 0
-1449 -207 -312 0
-1449 -207 -204 -220 0
-1449 -208 406 0
-1449 -208 -257 0
-1449 -208 -261 0
-1449 -208 -265 0
-1449 -208 -281 0
-1449 -208 -285 0
-1449 -208 -289 0
-1449 -208 -305 0
-1449 -208 -309 0
-1449 -208 -313 0
-1449 -208 -204 -221 0
-1449 -209 407 0
-1449 -209 -258 0
-1449 -209 -262 0
-1449 -209 -266 0
-1449 -209 -282 0
-1449 -209 -286 0
-1449 -209 -290 0
-1449 -209 -306 0
-1449 -209 -310 0
-1449 -209 -314 0
-1449 -209 -204 -222 0
-1449 -210 0
-1450 226 0
-1450 390 0
-1450 -186 0
-1450 -187 0
-1450 -191 0
-1450 -207 405 0
-1450 -207 -260 0
-1450 -207 -264 0
-1450 -207 -268 0
-1450 -207 -284 0
-1450 -207 -288 0
-1450 -207 -292 0
-1450 -207 -308 0
-1450 -207 -312 0
-1450 -207 -316 0
-1450 -207 -205 -220 0
-1450 -208 406 0
-1450 -208 -261 0
-1450 -208 -265 0
-1450 -208 -269 0
-1450 -208 -285 0
-1450 -208 -289 0
-1450 -208 -293 0
-1450 -208 -309 0
-1450 -208 -313 0
-1450 -208 -317 0
-1450 -208 -205 -221 0
-1450 -209 407 0
-1450 -209 -262 0
-1450 -209 -266 0
-1450 -209 -270 0
-1450 -209 -286 0
-1450 -209 -290 0
-1450 -209 -294 0
-1450 -209 -310 0
-1450 -209 -314 0
-1450 -209 -318 0
-1450 -209 -205 -222 0
-1450 -210 0
-1451 226 0
-1451 391 0
-1451 -186 0
-1451 -187 0
-1451 -188 0
-1451 -207 405 0
-1451 -207 -264 0
-1451 -207 -268 0
-1451 -207 -272 0
-1451 -207 -288 0
-1451 -207 -292 0
-1451 -207 -296 0
-1451 -207 -312 0
-1451 -207 -316 0
-1451 -207 -320 0
-1451 -207 -206 -220 0
-1451 -208 406 0
-1451 -208 -265 0
-1451 -208 -269 0
-1451 -208 -273 0
-1451 -208 -289 0
-1451 -208 -293 0
-1451 -208 -297 0
-1451 -208 -313 0
-1451 -208 -317 0
-1451 -208 -321 0
-1451 -208 -206 -221 0
-1451 -209 407 0
-1451 -209 -266 0
-1451 -209 -270 0
-1451 -209 -274 0
-1451 -209 -290 0
-1451 -209 -294 0
-1451 -209 -298 0
-1451 -209 -314 0
-1451 -209 -318 0
-1451 -209 -322 0
-1451 -209 -206 -222 0
-1451 -210 0
-1452 226 0
-1452 388 0
-1452 -195 0
-1452 -196 0
-1452 -197 0
-1452 -211 405 0
-1452 -211 -252 0
-1452 -211 -256 0
-1452 -211 -260 0
-1452 -211 -276 0
-1452 -211 -280 0
-1452 -211 -284 0
-1452 -211 -300 0
-1452 -211 -304 0
-1452 -211 -308 0
-1452 -211 -203 -220 0
-1452 -212 406 0
-1452 -212 -253 0
-1452 -212 -257 0
-1452 -212 -261 0
-1452 -212 -277 0
-1452 -212 -281 0
-1452 -212 -285 0
-1452 -212 -301 0
-1452 -212 -305 0
-1452 -212 -309 0
-1452 -212 -203 -221 0
-1452 -213 407 0
-1452 -213 -254 0
-1452 -213 -258 0
-1452 -213 -262 0
-1452 -213 -278 0
-1452 -213 -282 0
-1452 -213 -286 0
-1452 -213 -302 0
-1452 -213 -306 0
-1452 -213 -310 0
-1452 -213 -203 -222 0
-1452 -214 0
-1453 226 0
-1453 389 0
-1453 -192 0
-1453 -196 0
-1453 -197 0
-1453 -211 405 0
-1453 -211 -256 0
-1453 -211 -260 0
-1453 -211 -264 0
-1453 -211 -280 0
-1453 -211 -284 0
-1453 -211 -288 0
-1453 -211 -304 0
-1453 -211 -308 0
-1453 -211 -312 0
-1453 -211 -204 -220 0
-1453 -212 406 0
-1453 -212 -257 0
-1453 -212 -261 0
-1453 -212 -265 0
-1453 -212 -281 0
-1453 -212 -285 0
-1453 -212 -289 0
-1453 -212 -305 0
-1453 -212 -309 0
-1453 -212 -313 0
-1453 -212 -204 -221 0
-1453 -213 407 0
-1453 -213 -258 0
-1453 -213 -262 0
-1453 -213 -266 0
-1453 -213 -282 0
-1453 -213 -286 0
-1453 -213 -290 0
-1453 -213 -306 0
-1453 -213 -310 0
-1453 -213 -314 0
-1453 -213 -204 -222 0
-1453 -214 0
-1454 226 0
-1454 390 0
-1454 -192 0
-1454 -193 0
-1454 -197 0
-1454 -211 405 0
-1454 -211 -260 0
-1454 -211 -264 0
-1454 -211 -268 0
-1454 -211 -284 0
-1454 -211 -288 0
-1454 -211 -292 0
-1454 -211 -308 0
-1454 -211 -312 0
-1454 -211 -316 0
-1454 -211 -205 -220 0
-1454 -212 406 0
-1454 -212 -261 0
-1454 -212 -265 0
-1454 -212 -269 0
-1454 -212 -285 0
-1454 -212 -289 0
-1454 -212 -293 0
-1454 -212 -309 0
-1454 -212 -313 0
-1454 -212 -317 0
-1454 -212 -205 -221 0
-1454 -213 407 0
-1454 -213 -262 0
-1454 -213 -266 0
-1454 -213 -270 0
-1454 -213 -286 0
-1454 -213 -290 0
-1454 -213 -294 0
-1454 -213 -310 0
-1454 -213 -314 0
-1454 -213 -318 0
-1454 -213 -205 -222 0
-1454 -214 0
-1455 226 0
-1455 391 0
-1455 -192 0
-1455 -193 0
-1455 -194 0
-1455 -211 405 0
-1455 -211 -264 0
-1455 -211 -268 0
-1455 -211 -272 0
-1455 -211 -288 0
-1455 -211 -292 0
-1455 -211 -296 0
-1455 -211 -312 0
-1455 -211 -316 0
-1455 -211 -320 0
-1455 -211 -206 -220 0
-1455 -212 406 0
-1455 -212 -265 0
-1455 -212 -269 0
-1455 -212 -273 0
-1455 -212 -289 0
-1455 -212 -293 0
-1455 -212 -297 0
-1455 -212 -313 0
-1455 -212 -317 0
-1455 -212 -321 0
-1455 -212 -206 -221 0
-1455 -213 407 0
-1455 -213 -266 0
-1455 -213 -270 0
-1455 -213 -274 0
-1455 -213 -290 0
-1455 -213 -294 0
-1455 -213 -298 0
-1455 -213 -314 0
-1455 -213 -318 0
-1455 -213 -322 0
-1455 -213 -206 -222 0
-1455 -214 0
-1456 226 0
-1456 388 0
-1456 -201 0
-1456 -202 0
-1456 -215 405 0
-1456 -215 -252 0
-1456 -215 -256 0
-1456 -215 -260 0
-1456 -215 -276 0
-1456 -215 -280 0
-1456 -215 -284 0
-1456 -215 -300 0
-1456 -215 -304 0
-1456 -215 -308 0
-1456 -215 -203 -220 0
-1456 -216 406 0
-1456 -216 -253 0
-1456 -216 -257 0
-1456 -216 -261 0
-1456 -216 -277 0
-1456 -216 -281 0
-1456 -216 -285 0
-1456 -216 -301 0
-1456 -216 -305 0
-1456 -216 -309 0
-1456 -216 -203 -221 0
-1456 -217 407 0
-1456 -217 -254 0
-1456 -217 -258 0
-1456 -217 -262 0
-1456 -217 -278 0
-1456 -217 -282 0
-1456 -217 -286 0
-1456 -217 -302 0
-1456 -217 -306 0
-1456 -217 -310 0
-1456 -217 -203 -222 0
-1456 -218 0
-1457 226 0
-1457 389 0
-1457 -202 0
-1457 -215 405 0
-1457 -215 -256 0
-1457 -215 -260 0
-1457 -215 -264 0
-1457 -215 -280 0
-1457 -215 -284 0
-1457 -215 -288 0
-1457 -215 -304 0
-1457 -215 -308 0
-1457 -215 -312 0
-1457 -215 -204 -220 0
-1457 -216 406 0
-1457 -216 -257 0
-1457 -216 -261 0
-1457 -216 -265 0
-1457 -216 -281 0
-1457 -216 -285 0
-1457 -216 -289 0
-1457 -216 -305 0
-1457 -216 -309 0
-1457 -216 -313 0
-1457 -216 -204 -221 0
-1457 -217 407 0
-1457 -217 -258 0
-1457 -217 -262 0
-1457 -217 -266 0
-1457 -217 -282 0
-1457 -217 -286 0
-1457 -217 -290 0
-1457 -217 -306 0
-1457 -217 -310 0
-1457 -217 -314 0
-1457 -217 -204 -222 0
-1457 -218 0
-1458 226 0
-1458 390 0
-1458 -198 0
-1458 -215 405 0
-1458 -215 -260 0
-1458 -215 -264 0
-1458 -215 -268 0
-1458 -215 -284 0
-1458 -215 -288 0
-1458 -215 -292 0
-1458 -215 -308 0
-1458 -215 -312 0
-1458 -215 -316 0
-1458 -215 -205 -220 0
-1458 -216 406 0
-1458 -216 -261 0
-1458 -216 -265 0
-1458 -216 -269 0
-1458 -216 -285 0
-1458 -216 -289 0
-1458 -216 -293 0
-1458 -216 -309 0
-1458 -216 -313 0
-1458 -216 -317 0
-1458 -216 -205 -221 0
-1458 -217 407 0
-1458 -217 -262 0
-1458 -217 -266 0
-1458 -217 -270 0
-1458 -217 -286 0
-1458 -217 -290 0
-1458 -217 -294 0
-1458 -217 -310 0
-1458 -217 -314 0
-1458 -217 -318 0
-1458 -217 -205 -222 0
-1458 -218 0
-1459 226 0
-1459 391 0
-1459 -198 0
-1459 -199 0
-1459 -215 405 0
-1459 -215 -264 0
-1459 -215 -268 0
-1459 -215 -272 0
-1459 -215 -288 0
-1459 -215 -292 0
-1459 -215 -296 0
-1459 -215 -312 0
-1459 -215 -316 0
-1459 -215 -320 0
-1459 -215 -206 -220 0
-1459 -216 406 0
-1459 -216 -265 0
-1459 -216 -269 0
-1459 -216 -273 0
-1459 -216 -289 0
-1459 -216 -293 0
-1459 -216 -297 0
-1459 -216 -313 0
-1459 -216 -317 0
-1459 -216 -321 0
-1459 -216 -206 -221 0
-1459 -217 407 0
-1459 -217 -266 0
-1459 -217 -270 0
-1459 -217 -274 0
-1459 -217 -290 0
-1459 -217 -294 0
-1459 -217 -298 0
-1459 -217 -314 0
-1459 -217 -318 0
-1459 -217 -322 0
-1459 -217 -206 -222 0
-1459 -218 0
-1460 226 0
-1460 388 0
-1460 404 0
-1460 -251 0
-1460 -255 0
-1460 -259 0
-1460 -275 0
-1460 -279 0
-1460 -283 0
-1460 -299 0
-1460 -303 0
-1460 -307 0
-1460 -203 -219 0
-1461 226 0
-1461 389 0
-1461 404 0
-1461 -255 0
-1461 -259 0
-1461 -263 0
-1461 -279 0
-1461 -283 0
-1461 -287 0
-1461 -303 0
-1461 -307 0
-1461 -311 0
-1461 -204 -219 0
-1462 226 0
-1462 390 0
-1462 404 0
-1462 -259 0
-1462 -263 0
-1462 -267 0
-1462 -283 0
-1462 -287 0
-1462 -291 0
-1462 -307 0
-1462 -311 0
-1462 -315 0
-1462 -205 -219 0
-1463 226 0
-1463 391 0
-1463 404 0
-1463 -263 0
-1463 -267 0
-1463 -271 0
-1463 -287 0
-1463 -291 0
-1463 -295 0
-1463 -311 0
-1463 -315 0
-1463 -319 0
-1463 -206 -219 0
-186 371 1380 1381 1382 1383 1384 1385 1386 1387 1388 1389 1390 1391 1392 1393 1394 1395 1396 1397 1398 1399 1400 1401 1402 1403 0
-187 372 1380 1381 1382 1383 1384 1385 1386 1387 1388 1389 1390 1391 1392 1393 1394 1395 1396 1397 1398 1399 1400 1401 1402 1403 0
-188 373 1380 1381 1382 1383 1384 1385 1386 1387 1388 1389 1390 1391 1392 1393 1394 1395 1396 1397 1398 1399 1400 1401 1402 1403 0
-189 374 1380 1381 1382 1383 1384 1385 1386 1387 1388 1389 1390 1391 1392 1393 1394 1395 1396 1397 1398 1399 1400 1401 1402 1403 0
-190 375 1380 1381 1382 1383 1384 1385 1386 1387 1388 1389 1390 1391 1392 1393 1394 1395 1396 1397 1398 1399 1400 1401 1402 1403 0
-191 376 1380 1381 1382 1383 1384 1385 1386 1387 1388 1389 1390 1391 1392 1393 1394 1395 1396 1397 1398 1399 1400 1401 1402 1403 0
-207 392 1380 1381 1382 1383 1384 1385 1386 1387 1388 1389 1390 1391 1392 1393 1394 1395 1396 1397 1398 1399 1400 1401 1402 1403 0
-208 393 1380 1381 1382 1383 1384 1385 1386 1387 1388 1389 1390 1391 1392 1393 1394 1395 1396 1397 1398 1399 1400 1401 1402 1403 0
-209 394 1380 1381 1382 1383 1384 1385 1386 1387 1388 1389 1390 1391 1392 1393 1394 1395 1396 1397 1398 1399 1400 1401 1402 1403 0
-210 395 1380 1381 1382 1383 1384 1385 1386 1387 1388 1389 1390 1391 1392 1393 1394 1395 1396 1397 1398 1399 1400 1401 1402 1403 0
-192 377 1404 1405 1406 1407 1408 1409 1410 1411 1412 1413 1414 1415 1416 1417 1418 1419 1420 1421 1422 1423 1424 1425 1426 1427 0
-193 378 1404 1405 1406 1407 1408 1409 1410 1411 1412 1413 1414 1415 1416 1417 1418 1419 1420 1421 1422 1423 1424 1425 1426 1427 0
-194 379 1404 1405 1406 1407 1408 1409 1410 1411 1412 1413 1414 1415 1416 1417 1418 1419 1420 1421 1422 1423 1424 1425 1426 1427 0
-195 380 1404 1405 1406 1407 1408 1409 1410 1411 1412 1413 1414 1415 1416 1417 1418 1419 1420 1421 1422 1423 1424 1425 1426 1427 0
-196 381 1404 1405 1406 1407 1408 1409 1410 1411 1412 1413 1414 1415 1416 1417 1418 1419 1420 1421 1422 1423 1424 1425 1426 1427 0
-197 382 1404 1405 1406 1407 1408 1409 1410 1411 1412 1413 1414 1415 1416 1417 1418 1419 1420 1421 1422 1423 1424 1425 1426 1427 0
-211 396 1404 1405 1406 1407 1408 1409 1410 1411 1412 1413 1414 1415 1416 1417 1418 1419 1420 1421 1422 1423 1424 1425 1426 1427 0
-212 397 1404 1405 1406 1407 1408 1409 1410 1411 1412 1413 1414 1415 1416 1417 1418 1419 1420 1421 1422 1423 1424 1425 1426 1427 0
-213 398 1404 1405 1406 1407 1408 1409 1410 1411 1412 1413 1414 1415 1416 1417 1418 1419 1420 1421 1422 1423 1424 1425 1426 1427 0
-214 399 1404 1405 1406 1407 1408 1409 1410 1411 1412 1413 1414 1415 1416 1417 1418 1419 1420 1421 1422 1423 1424 1425 1426 1427 0
-198 383 1428 1429 1430 1431 1432 1433 1434 1435 1436 1437 1438 1439 1440 1441 1442 1443 1444 1445 1446 1447 0
-199 384 1428 1429 1430 1431 1432 1433 1434 1435 1436 1437 1438 1439 1440 1441 1442 1443 1444 1445 1446 1447 0
-200 385 1428 1429 1430 1431 1432 1433 1434 1435 1436 1437 1438 1439 1440 1441 1442 1443 1444 1445 1446 1447 0
-201 386 1428 1429 1430 1431 1432 1433 1434 1435 1436 1437 1438 1439 1440 1441 1442 1443 1444 1445 1446 1447 0
-202 387 1428 1429 1430 1431 1432 1433 1434 1435 1436 1437 1438 1439 1440 1441 1442 1443 1444 1445 1446 1447 0
-215 400 1428 1429 1430 1431 1432 1433 1434 1435 1436 1437 1438 1439 1440 1441 1442 1443 1444 1445 1446 1447 0
-216 401 1428 1429 1430 1431 1432 1433 1434 1435 1436 1437 1438 1439 1440 1441 1442 1443 1444 1445 1446 1447 0
-217 402 1428 1429 1430 1431 1432 1433 1434 1435 1436 1437 1438 1439 1440 1441 1442 1443 1444 1445 1446 1447 0
-218 403 1428 1429 1430 1431 1432 1433 1434 1435 1436 1437 1438 1439 1440 1441 1442 1443 1444 1445 1446 1447 0
-203 388 1448 1449 1450 1451 1452 1453 1454 1455 1456 1457 1458 1459 1460 1461 1462 1463 0
-204 389 1448 1449 1450 1451 1452 1453 1454 1455 1456 1457 1458 1459 1460 1461 1462 1463 0
-205 390 1448 1449 1450 1451 1452 1453 1454 1455 1456 1457 1458 1459 1460 1461 1462 1463 0
-206 391 1448 1449 1450 1451 1452 1453 1454 1455 1456 1457 1458 1459 1460 1461 1462 1463 0
-219 404 1448 1449 1450 1451 1452 1453 1454 1455 1456 1457 1458 1459 1460 1461 1462 1463 0
-220 405 1448 1449 1450 1451 1452 1453 1454 1455 1456 1457 1458 1459 1460 1461 1462 1463 0
-221 406 1448 1449 1450 1451 1452 1453 1454 1455 1456 1457 1458 1459 1460 1461 1462 1463 0
-222 407 1448 1449 1450 1451 1452 1453 1454 1455 1456 1457 1458 1459 1460 1461 1462 1463 0
-1464 -1465 0
-1464 -1466 0
-1464 -1467 0
-1464 -1468 0
-1464 -1469 0
-1464 -1470 0
-1464 -1471 0
-1464 -1472 0
-1464 -1473 0
-1464 -1474 0
-1464 -1475 0
-1464 -1476 0
-1464 -1477 0
-1464 -1478 0
-1464 -1479 0
-1464 -1480 0
-1464 -1481 0
-1464 -1482 0
-1464 -1483 0
-1464 -1484 0
-1464 -1485 0
-1464 -1486 0
-1464 -1487 0
-1464 -1488 0
-1464 -1489 0
-1464 -1490 0
-1464 -1491 0
-1464 -1492 0
-1464 -1493 0
-1464 -1494 0
-1464 -1495 0
-1464 -1496 0
-1464 -1497 0
-1464 -1498 0
-1464 -1499 0
-1464 -1500 0
-1464 -1501 0
-1464 -1502 0
-1464 -1503 0
-1464 -1504 0
-1464 -1505 0
-1464 -1506 0
-1464 -1507 0
-1464 -1508 0
-1464 -1509 0
-1464 -1510 0
-1464 -1511 0
-1464 -1512 0
-1464 -1513 0
-1464 -1514 0
-1464 -1515 0
-1464 -1516 0
-1464 -1517 0
-1464 -1518 0
-1464 -1519 0
-1464 -1520 0
-1464 -1521 0
-1464 -1522 0
-1464 -1523 0
-1464 -1524 0
-1464 -1525 0
-1464 -1526 0
-1464 -1527 0
-1464 -1528 0
-1464 -1529 0
-1464 -1530 0
-1464 -1531 0
-1464 -1532 0
-1464 -1533 0
-1464 -1534 0
-1464 -1535 0
-1464 -1536 0
-1464 -1537 0
-1464 -1538 0
-1464 -1539 0
-1464 -1540 0
-1464 -1541 0
-1464 -1542 0
-1464 -1543 0
-1464 -1544 0
-1464 -1545 0
-1464 -1546 0
-1464 -1547 0
-1465 -1466 0
-1465 -1467 0
-1465 -1468 0
-1465 -1469 0
-1465 -1470 0
-1465 -1471 0
-1465 -1472 0
-1465 -1473 0
-1465 -1474 0
-1465 -1475 0
-1465 -1476 0
-1465 -1477 0
-1465 -1478 0
-1465 -1479 0
-1465 -1480 0
-1465 -1481 0
-1465 -1482 0
-1465 -1483 0
-1465 -1484 0
-1465 -1485 0
-1465 -1486 0
-1465 -1487 0
-1465 -1488 0
-1465 -1489 0
-1465 -1490 0
-1465 -1491 0
-1465 -1492 0
-1465 -1493 0
-1465 -1494 0
-1465 -1495 0
-1465 -1496 0
-1465 -1497 0
-1465 -1498 0
-1465 -1499 0
-1465 -1500 0
-1465 -1501 0
-1465 -1502 0
-1465 -1503 0
-1465 -1504 0
-1465 -1505 0
-1465 -1506 0
-1465 -1507 0
-1465 -1508 0
-1465 -1509 0
-1465 -1510 0
-1465 -1511 0
-1465 -1512 0
-1465 -1513 0
-1465 -1514 0
-1465 -1515 0
-1465 -1516 0
-1465 -1517 0
-1465 -1518 0
-1465 -1519 0
-1465 -1520 0
-1465 -1521 0
-1465 -1522 0
-1465 -1523 0
-1465 -1524 0
-1465 -1525 0
-1465 -1526 0
-1465 -1527 0
-1465 -1528 0
-1465 -1529 0
-1465 -1530 0
-1465 -1531 0
-1465 -1532 0
-1465 -1533 0
-1465 -1534 0
-1465 -1535 0
-1465 -1536 0
-1465 -1537 0
-1465 -1538 0
-1465 -1539 0
-1465 -1540 0
-1465 -1541 0
-1465 -1542 0
-1465 -1543 0
-1465 -1544 0
-1465 -1545 0
-1465 -1546 0
-1465 -1547 0
-1466 -1467 0
-1466 -1468 0
-1466 -1469 0
-1466 -1470 0
-1466 -1471 0
-1466 -1472 0
-1466 -1473 0
-1466 -1474 0
-1466 -1475 0
-1466 -1476 0
-1466 -1477 0
-1466 -1478 0
-1466 -1479 0
-1466 -1480 0
-1466 -1481 0
-1466 -1482 0
-1466 -1483 0
-1466 -1484 0
-1466 -1485 0
-1466 -1486 0
-1466 -1487 0
-1466 -1488 0
-1466 -1489 0
-1466 -1490 0
-1466 -1491 0
-1466 -1492 0
-1466 -1493 0
-1466 -1494 0
-1466 -1495 0
-1466 -1496 0
-1466 -1497 0
-1466 -1498 0
-1466 -1499 0
-1466 -1500 0
-1466 -1501 0
-1466 -1502 0
-1466 -1503 0
-1466 -1504 0
-1466 -1505 0
-1466 -1506 0
-1466 -1507 0
-1466 -1508 0
-1466 -1509 0
-1466 -1510 0
-1466 -1511 0
-1466 -1512 0
-1466 -1513 0
-1466 -1514 0
-1466 -1515 0
-1466 -1516 0
-1466 -1517 0
-1466 -1518 0
-1466 -1519 0
-1466 -1520 0
-1466 -1521 0
-1466 -1522 0
-1466 -1523 0
-1466 -1524 0
-1466 -1525 0
-1466 -1526 0
-1466 -1527 0
-1466 -1528 0
-1466 -1529 0
-1466 -1530 0
-1466 -1531 0
-1466 -1532 0
-1466 -1533 0
-1466 -1534 0
-1466 -1535 0
-1466 -1536 0
-1466 -1537 0
-1466 -1538 0
-1466 -1539 0
-1466 -1540 0
-1466 -1541 0
-1466 -1542 0
-1466 -1543 0
-1466 -1544 0
-1466 -1545 0
-1466 -1546 0
-1466 -1547 0
-1467 -1468 0
-1467 -1469 0
-1467 -1470 0
-1467 -1471 0
-1467 -1472 0
-1467 -1473 0
-1467 -1474 0
-1467 -1475 0
-1467 -1476 0
-1467 -1477 0
-1467 -1478 0
-1467 -1479 0
-1467 -1480 0
-1467 -1481 0
-1467 -1482 0
-1467 -1483 0
-1467 -1484 0
-1467 -1485 0
-1467 -1486 0
-1467 -1487 0
-1467 -1488 0
-1467 -1489 0
-1467 -1490 0
-1467 -1491 0
-1467 -1492 0
-1467 -1493 0
-1467 -1494 0
-1467 -1495 0
-1467 -1496 0
-1467 -1497 0
-1467 -1498 0
-1467 -1499 0
-1467 -1500 0
-1467 -1501 0
-1467 -1502 0
-1467 -1503 0
-1467 -1504 0
-1467 -1505 0
-1467 -1506 0
-1467 -1507 0
-1467 -1508 0
-1467 -1509 0
-1467 -1510 0
-1467 -1511 0
-1467 -1512 0
-1467 -1513 0
-1467 -1514 0
-1467 -1515 0
-1467 -1516 0
-1467 -1517 0
-1467 -1518 0
-1467 -1519 0
-1467 -1520 0
-1467 -1521 0
-1467 -1522 0
-1467 -1523 0
-1467 -1524 0
-1467 -1525 0
-1467 -1526 0
-1467 -1527 0
-1467 -1528 0
-1467 -1529 0
-1467 -1530 0
-1467 -1531 0
-1467 -1532 0
-1467 -1533 0
-1467 -1534 0
-1467 -1535 0
-1467 -1536 0
-1467 -1537 0
-1467 -1538 0
-1467 -1539 0
-1467 -1540 0
-1467 -1541 0
-1467 -1542 0
-1467 -1543 0
-1467 -1544 0
-1467 -1545 0
-1467 -1546 0
-1467 -1547 0
-1468 -1469 0
-1468 -1470 0
-1468 -1471 0
-1468 -1472 0
-1468 -1473 0
-1468 -1474 0
-1468 -1475 0
-1468 -1476 0
-1468 -1477 0
-1468 -1478 0
-1468 -1479 0
-1468 -1480 0
-1468 -1481 0
-1468 -1482 0
-1468 -1483 0
-1468 -1484 0
-1468 -1485 0
-1468 -1486 0
-1468 -1487 0
-1468 -1488 0
-1468 -1489 0
-1468 -1490 0
-1468 -1491 0
-1468 -1492 0
-1468 -1493 0
-1468 -1494 0
-1468 -1495 0
-1468 -1496 0
-1468 -1497 0
-1468 -1498 0
-1468 -1499 0
-1468 -1500 0
-1468 -1501 0
-1468 -1502 0
-1468 -1503 0
-1468 -1504 0
-1468 -1505 0
-1468 -1506 0
-1468 -1507 0
-1468 -1508 0
-1468 -1509 0
-1468 -1510 0
-1468 -1511 0
-1468 -1512 0
-1468 -1513 0
-1468 -1514 0
-1468 -1515 0
-1468 -1516 0
-1468 -1517 0
-1468 -1518 0
-1468 -1519 0
-1468 -1520 0
-1468 -1521 0
-1468 -1522 0
-1468 -1523 0
-1468 -1524 0
-1468 -1525 0
-1468 -1526 0
-1468 -1527 0
-1468 -1528 0
-1468 -1529 0
-1468 -1530 0
-1468 -1531 0
-1468 -1532 0
-1468 -1533 0
-1468 -1534 0
-1468 -1535 0
-1468 -1536 0
-1468 -1537 0
-1468 -1538 0
-1468 -1539 0
-1468 -1540 0
-1468 -1541 0
-1468 -1542 0
-1468 -1543 0
-1468 -1544 0
-1468 -1545 0
-1468 -1546 0
-1468 -1547 0
-1469 -1470 0
-1469 -1471 0
-1469 -1472 0
-1469 -1473 0
-1469 -1474 0
-1469 -1475 0
-1469 -1476 0
-1469 -1477 0
-1469 -1478 0
-1469 -1479 0
-1469 -1480 0
-1469 -1481 0
-1469 -1482 0
-1469 -1483 0
-1469 -1484 0
-1469 -1485 0
-1469 -1486 0
-1469 -1487 0
-1469 -1488 0
-1469 -1489 0
-1469 -1490 0
-1469 -1491 0
-1469 -1492 0
-1469 -1493 0
-1469 -1494 0
-1469 -1495 0
-1469 -1496 0
-1469 -1497 0
-1469 -1498 0
-1469 -1499 0
-1469 -1500 0
-1469 -1501 0
-1469 -1502 0
-1469 -1503 0
-1469 -1504 0
-1469 -1505 0
-1469 -1506 0
-1469 -1507 0
-1469 -1508 0
-1469 -1509 0
-1469 -1510 0
-1469 -1511 0
-1469 -1512 0
-1469 -1513 0
-1469 -1514 0
-1469 -1515 0
-1469 -1516 0
-1469 -1517 0
-1469 -1518 0
-1469 -1519 0
-1469 -1520 0
-1469 -1521 0
-1469 -1522 0
-1469 -1523 0
-1469 -1524 0
-1469 -1525 0
-1469 -1526 0
-1469 -1527 0
-1469 -1528 0
-1469 -1529 0
-1469 -1530 0
-1469 -1531 0
-1469 -1532 0
-1469 -1533 0
-1469 -1534 0
-1469 -1535 0
-1469 -1536 0
-1469 -1537 0
-1469 -1538 0
-1469 -1539 0
-1469 -1540 0
-1469 -1541 0
-1469 -1542 0
-1469 -1543 0
-1469 -1544 0
-1469 -1545 0
-1469 -1546 0
-1469 -1547 0
-1470 -1471 0
-1470 -1472 0
-1470 -1473 0
-1470 -1474 0
-1470 -1475 0
-1470 -1476 0
-1470 -1477 0
-1470 -1478 0
-1470 -1479 0
-1470 -1480 0
-1470 -1481 0
-1470 -1482 0
-1470 -1483 0
-1470 -1484 0
-1470 -1485 0
-1470 -1486 0
-1470 -1487 0
-1470 -1488 0
-1470 -1489 0
-1470 -1490 0
-1470 -1491 0
-1470 -1492 0
-1470 -1493 0
-1470 -1494 0
-1470 -1495 0
-1470 -1496 0
-1470 -1497 0
-1470 -1498 0
-1470 -1499 0
-1470 -1500 0
-1470 -1501 0
-1470 -1502 0
-1470 -1503 0
-1470 -1504 0
-1470 -1505 0
-1470 -1506 0
-1470 -1507 0
-1470 -1508 0
-1470 -1509 0
-1470 -1510 0
-1470 -1511 0
-1470 -1512 0
-1470 -1513 0
-1470 -1514 0
-1470 -1515 0
-1470 -1516 0
-1470 -1517 0
-1470 -1518 0
-1470 -1519 0
-1470 -1520 0
-1470 -1521 0
-1470 -1522 0
-1470 -1523 0
-1470 -1524 0
-1470 -1525 0
-1470 -1526 0
-1470 -1527 0
-1470 -1528 0
-1470 -1529 0
-1470 -1530 0
-1470 -1531 0
-1470 -1532 0
-1470 -1533 0
-1470 -1534 0
-1470 -1535 0
-1470 -1536 0
-1470 -1537 0
-1470 -1538 0
-1470 -1539 0
-1470 -1540 0
-1470 -1541 0
-1470 -1542 0
-1470 -1543 0
-1470 -1544 0
-1470 -1545 0
-1470 -1546 0
-1470 -1547 0
-1471 -1472 0
-1471 -1473 0
-1471 -1474 0
-1471 -1475 0
-1471 -1476 0
-1471 -1477 0
-1471 -1478 0
-1471 -1479 0
-1471 -1480 0
-1471 -1481 0
-1471 -1482 0
-1471 -1483 0
-1471 -1484 0
-1471 -1485 0
-1471 -1486 0
-1471 -1487 0
-1471 -1488 0
-1471 -1489 0
-1471 -1490 0
-1471 -1491 0
-1471 -1492 0
-1471 -1493 0
-1471 -1494 0
-1471 -1495 0
-1471 -1496 0
-1471 -1497 0
-1471 -1498 0
-1471 -1499 0
-1471 -1500 0
-1471 -1501 0
-1471 -1502 0
-1471 -1503 0
-1471 -1504 0
-1471 -1505 0
-1471 -1506 0
-1471 -1507 0
-1471 -1508 0
-1471 -1509 0
-1471 -1510 0
-1471 -1511 0
-1471 -1512 0
-1471 -1513 0
-1471 -1514 0
-1471 -1515 0
-1471 -1516 0
-1471 -1517 0
-1471 -1518 0
-1471 -1519 0
-1471 -1520 0
-1471 -1521 0
-1471 -1522 0
-1471 -1523 0
-1471 -1524 0
-1471 -1525 0
-1471 -1526 0
-1471 -1527 0
-1471 -1528 0
-1471 -1529 0
-1471 -1530 0
-1471 -1531 0
-1471 -1532 0
-1471 -1533 0
-1471 -1534 0
-1471 -1535 0
-1471 -1536 0
-1471 -1537 0
-1471 -1538 0
-1471 -1539 0
-1471 -1540 0
-1471 -1541 0
-1471 -1542 0
-1471 -1543 0
-1471 -1544 0
-1471 -1545 0
-1471 -1546 0
-1471 -1547 0
-1472 -1473 0
-1472 -1474 0
-1472 -1475 0
-1472 -1476 0
-1472 -1477 0
-1472 -1478 0
-1472 -1479 0
-1472 -1480 0
-1472 -1481 0
-1472 -1482 0
-1472 -1483 0
-1472 -1484 0
-1472 -1485 0
-1472 -1486 0
-1472 -1487 0
-1472 -1488 0
-1472 -1489 0
-1472 -1490 0
-1472 -1491 0
-1472 -1492 0
-1472 -1493 0
-1472 -1494 0
-1472 -1495 0
-1472 -1496 0
-1472 -1497 0
-1472 -1498 0
-1472 -1499 0
-1472 -1500 0
-1472 -1501 0
-1472 -1502 0
-1472 -1503 0
-1472 -1504 0
-1472 -1505 0
-1472 -1506 0
-1472 -1507 0
-1472 -1508 0
-1472 -1509 0
-1472 -1510 0
-1472 -1511 0
-1472 -1512 0
-1472 -1513 0
-1472 -1514 0
-1472 -1515 0
-1472 -1516 0
-1472 -1517 0
-1472 -1518 0
-1472 -1519 0
-1472 -1520 0
-1472 -1521 0
-1472 -1522 0
-1472 -1523 0
-1472 -1524 0
-1472 -1525 0
-1472 -1526 0
-1472 -1527 0
-1472 -1528 0
-1472 -1529 0
-1472 -1530 0
-1472 -1531 0
-1472 -1532 0
-1472 -1533 0
-1472 -1534 0
-1472 -1535 0
-1472 -1536 0
-1472 -1537 0
-1472 -1538 0
-1472 -1539 0
-1472 -1540 0
-1472 -1541 0
-1472 -1542 0
-1472 -1543 0
-1472 -1544 0
-1472 -1545 0
-1472 -1546 0
-1472 -1547 0
-1473 -1474 0
-1473 -1475 0
-1473 -1476 0
-1473 -1477 0
-1473 -1478 0
-1473 -1479 0
-1473 -1480 0
-1473 -1481 0
-1473 -1482 0
-1473 -1483 0
-1473 -1484 0
-1473 -1485 0
-1473 -1486 0
-1473 -1487 0
-1473 -1488 0
-1473 -1489 0
-1473 -1490 0
-1473 -1491 0
-1473 -1492 0
-1473 -1493 0
-1473 -1494 0
-1473 -1495 0
-1473 -1496 0
-1473 -1497 0
-1473 -1498 0
-1473 -1499 0
-1473 -1500 0
-1473 -1501 0
-1473 -1502 0
-1473 -1503 0
-1473 -1504 0
-1473 -1505 0
-1473 -1506 0
-1473 -1507 0
-1473 -1508 0
-1473 -1509 0
-1473 -1510 0
-1473 -1511 0
-1473 -1512 0
-1473 -1513 0
-1473 -1514 0
-1473 -1515 0
-1473 -1516 0
-1473 -1517 0
-1473 -1518 0
-1473 -1519 0
-1473 -1520 0
-1473 -1521 0
-1473 -1522 0
-1473 -1523 0
-1473 -1524 0
-1473 -1525 0
-1473 -1526 0
-1473 -1527 0
-1473 -1528 0
-1473 -1529 0
-1473 -1530 0
-1473 -1531 0
-1473 -1532 0
-1473 -1533 0
-1473 -1534 0
-1473 -1535 0
-1473 -1536 0
-1473 -1537 0
-1473 -1538 0
-1473 -1539 0
-1473 -1540 0
-1473 -1541 0
-1473 -1542 0
-1473 -1543 0
-1473 -1544 0
-1473 -1545 0
-1473 -1546 0
-1473 -1547 0
-1474 -1475 0
-1474 -1476 0
-1474 -1477 0
-1474 -1478 0
-1474 -1479 0
-1474 -1480 0
-1474 -1481 0
-1474 -1482 0
-1474 -1483 0
-1474 -1484 0
-1474 -1485 0
-1474 -1486 0
-1474 -1487 0
-1474 -1488 0
-1474 -1489 0
-1474 -1490 0
-1474 -1491 0
-1474 -1492 0
-1474 -1493 0
-1474 -1494 0
-1474 -1495 0
-1474 -1496 0
-1474 -1497 0
-1474 -1498 0
-1474 -1499 0
-1474 -1500 0
-1474 -1501 0
-1474 -1502 0
-1474 -1503 0
-1474 -1504 0
-1474 -1505 0
-1474 -1506 0
-1474 -1507 0
-1474 -1508 0
-1474 -1509 0
-1474 -1510 0
-1474 -1511 0
-1474 -1512 0
-1474 -1513 0
-1474 -1514 0
-1474 -1515 0
-1474 -1516 0
-1474 -1517 0
-1474 -1518 0
-1474 -1519 0
-1474 -1520 0
-1474 -1521 0
-1474 -1522 0
-1474 -1523 0
-1474 -1524 0
-1474 -1525 0
-1474 -1526 0
-1474 -1527 0
-1474 -1528 0
-1474 -1529 0
-1474 -1530 0
-1474 -1531 0
-1474 -1532 0
-1474 -1533 0
-1474 -1534 0
-1474 -1535 0
-1474 -1536 0
-1474 -1537 0
-1474 -1538 0
-1474 -1539 0
-1474 -1540 0
-1474 -1541 0
-1474 -1542 0
-1474 -1543 0
-1474 -1544 0
-1474 -1545 0
-1474 -1546 0
-1474 -1547 0
-1475 -1476 0
-1475 -1477 0
-1475 -1478 0
-1475 -1479 0
-1475 -1480 0
-1475 -1481 0
-1475 -1482 0
-1475 -1483 0
-1475 -1484 0
-1475 -1485 0
-1475 -1486 0
-1475 -1487 0
-1475 -1488 0
-1475 -1489 0
-1475 -1490 0
-1475 -1491 0
-1475 -1492 0
-1475 -1493 0
-1475 -1494 0
-1475 -1495 0
-1475 -1496 0
-1475 -1497 0
-1475 -1498 0
-1475 -1499 0
-1475 -1500 0
-1475 -1501 0
-1475 -1502 0
-1475 -1503 0
-1475 -1504 0
-1475 -1505 0
-1475 -1506 0
-1475 -1507 0
-1475 -1508 0
-1475 -1509 0
-1475 -1510 0
-1475 -1511 0
-1475 -1512 0
-1475 -1513 0
-1475 -1514 0
-1475 -1515 0
-1475 -1516 0
-1475 -1517 0
-1475 -1518 0
-1475 -1519 0
-1475 -1520 0
-1475 -1521 0
-1475 -1522 0
-1475 -1523 0
-1475 -1524 0
-1475 -1525 0
-1475 -1526 0
-1475 -1527 0
-1475 -1528 0
-1475 -1529 0
-1475 -1530 0
-1475 -1531 0
-1475 -1532 0
-1475 -1533 0
-1475 -1534 0
-1475 -1535 0
-1475 -1536 0
-1475 -1537 0
-1475 -1538 0
-1475 -1539 0
-1475 -1540 0
-1475 -1541 0
-1475 -1542 0
-1475 -1543 0
-1475 -1544 0
-1475 -1545 0
-1475 -1546 0
-1475 -1547 0
-1476 -1477 0
-1476 -1478 0
-1476 -1479 0
-1476 -1480 0
-1476 -1481 0
-1476 -1482 0
-1476 -1483 0
-1476 -1484 0
-1476 -1485 0
-1476 -1486 0
-1476 -1487 0
-1476 -1488 0
-1476 -1489 0
-1476 -1490 0
-1476 -1491 0
-1476 -1492 0
-1476 -1493 0
-1476 -1494 0
-1476 -1495 0
-1476 -1496 0
-1476 -1497 0
-1476 -1498 0
-1476 -1499 0
-1476 -1500 0
-1476 -1501 0
-1476 -1502 0
-1476 -1503 0
-1476 -1504 0
-1476 -1505 0
-1476 -1506 0
-1476 -1507 0
-1476 -1508 0
-1476 -1509 0
-1476 -1510 0
-1476 -1511 0
-1476 -1512 0
-1476 -1513 0
-1476 -1514 0
-1476 -1515 0
-1476 -1516 0
-1476 -1517 0
-1476 -1518 0
-1476 -1519 0
-1476 -1520 0
-1476 -1521 0
-1476 -1522 0
-1476 -1523 0
-1476 -1524 0
-1476 -1525 0
-1476 -1526 0
-1476 -1527 0
-1476 -1528 0
-1476 -1529 0
-1476 -1530 0
-1476 -1531 0
-1476 -1532 0
-1476 -1533 0
-1476 -1534 0
-1476 -1535 0
-1476 -1536 0
-1476 -1537 0
-1476 -1538 0
-1476 -1539 0
-1476 -1540 0
-1476 -1541 0
-1476 -1542 0
-1476 -1543 0
-1476 -1544 0
-1476 -1545 0
-1476 -1546 0
-1476 -1547 0
-1477 -1478 0
-1477 -1479 0
-1477 -1480 0
-1477 -1481 0
-1477 -1482 0
-1477 -1483 0
-1477 -1484 0
-1477 -1485 0
-1477 -1486 0
-1477 -1487 0
-1477 -1488 0
-1477 -1489 0
-1477 -1490 0
-1477 -1491 0
-1477 -1492 0
-1477 -1493 0
-1477 -1494 0
-1477 -1495 0
-1477 -1496 0
-1477 -1497 0
-1477 -1498 0
-1477 -1499 0
-1477 -1500 0
-1477 -1501 0
-1477 -1502 0
-1477 -1503 0
-1477 -1504 0
-1477 -1505 0
-1477 -1506 0
-1477 -1507 0
-1477 -1508 0
-1477 -1509 0
-1477 -1510 0
-1477 -1511 0
-1477 -1512 0
-1477 -1513 0
-1477 -1514 0
-1477 -1515 0
-1477 -1516 0
-1477 -1517 0
-1477 -1518 0
-1477 -1519 0
-1477 -1520 0
-1477 -1521 0
-1477 -1522 0
-1477 -1523 0
-1477 -1524 0
-1477 -1525 0
-1477 -1526 0
-1477 -1527 0
-1477 -1528 0
-1477 -1529 0
-1477 -1530 0
-1477 -1531 0
-1477 -1532 0
-1477 -1533 0
-1477 -1534 0
-1477 -1535 0
-1477 -1536 0
-1477 -1537 0
-1477 -1538 0
-1477 -1539 0
-1477 -1540 0
-1477 -1541 0
-1477 -1542 0
-1477 -1543 0
-1477 -1544 0
-1477 -1545 0
-1477 -1546 0
-1477 -1547 0
-1478 -1479 0
-1478 -1480 0
-1478 -1481 0
-1478 -1482 0
-1478 -1483 0
-1478 -1484 0
-1478 -1485 0
-1478 -1486 0
-1478 -1487 0
-1478 -1488 0
-1478 -1489 0
-1478 -1490 0
-1478 -1491 0
-1478 -1492 0
-1478 -1493 0
-1478 -1494 0
-1478 -1495 0
-1478 -1496 0
-1478 -1497 0
-1478 -1498 0
-1478 -1499 0
-1478 -1500 0
-1478 -1501 0
-1478 -1502 0
-1478 -1503 0
-1478 -1504 0
-1478 -1505 0
-1478 -1506 0
-1478 -1507 0
-1478 -1508 0
-1478 -1509 0
-1478 -1510 0
-1478 -1511 0
-1478 -1512 0
-1478 -1513 0
-1478 -1514 0
-1478 -1515 0
-1478 -1516 0
-1478 -1517 0
-1478 -1518 0
-1478 -1519 0
-1478 -1520 0
-1478 -1521 0
-1478 -1522 0
-1478 -1523 0
-1478 -1524 0
-1478 -1525 0
-1478 -1526 0
-1478 -1527 0
-1478 -1528 0
-1478 -1529 0
-1478 -1530 0
-1478 -1531 0
-1478 -1532 0
-1478 -1533 0
-1478 -1534 0
-1478 -1535 0
-1478 -1536 0
-1478 -1537 0
-1478 -1538 0
-1478 -1539 0
-1478 -1540 0
-1478 -1541 0
-1478 -1542 0
-1478 -1543 0
-1478 -1544 0
-1478 -1545 0
-1478 -1546 0
-1478 -1547 0
-1479 -1480 0
-1479 -1481 0
-1479 -1482 0
-1479 -1483 0
-1479 -1484 0
-1479 -1485 0
-1479 -1486 0
-1479 -1487 0
-1479 -1488 0
-1479 -1489 0
-1479 -1490 0
-1479 -1491 0
-1479 -1492 0
-1479 -1493 0
-1479 -1494 0
-1479 -1495 0
-1479 -1496 0
-1479 -1497 0
-1479 -1498 0
-1479 -1499 0
-1479 -1500 0
-1479 -1501 0
-1479 -1502 0
-1479 -1503 0
-1479 -1504 0
-1479 -1505 0
-1479 -1506 0
-1479 -1507 0
-1479 -1508 0
-1479 -1509 0
-1479 -1510 0
-1479 -1511 0
-1479 -1512 0
-1479 -1513 0
-1479 -1514 0
-1479 -1515 0
-1479 -1516 0
-1479 -1517 0
-1479 -1518 0
-1479 -1519 0
-1479 -1520 0
-1479 -1521 0
-1479 -1522 0
-1479 -1523 0
-1479 -1524 0
-1479 -1525 0
-1479 -1526 0
-1479 -1527 0
-1479 -1528 0
-1479 -1529 0
-1479 -1530 0
-1479 -1531 0
-1479 -1532 0
-1479 -1533 0
-1479 -1534 0
-1479 -1535 0
-1479 -1536 0
-1479 -1537 0
-1479 -1538 0
-1479 -1539 0
-1479 -1540 0
-1479 -1541 0
-1479 -1542 0
-1479 -1543 0
-1479 -1544 0
-1479 -1545 0
-1479 -1546 0
-1479 -1547 0
-1480 -1481 0
-1480 -1482 0
-1480 -1483 0
-1480 -1484 0
-1480 -1485 0
-1480 -1486 0
-1480 -1487 0
-1480 -1488 0
-1480 -1489 0
-1480 -1490 0
-1480 -1491 0
-1480 -1492 0
-1480 -1493 0
-1480 -1494 0
-1480 -1495 0
-1480 -1496 0
-1480 -1497 0
-1480 -1498 0
-1480 -1499 0
-1480 -1500 0
-1480 -1501 0
-1480 -1502 0
-1480 -1503 0
-1480 -1504 0
-1480 -1505 0
-1480 -1506 0
-1480 -1507 0
-1480 -1508 0
-1480 -1509 0
-1480 -1510 0
-1480 -1511 0
-1480 -1512 0
-1480 -1513 0
-1480 -1514 0
-1480 -1515 0
-1480 -1516 0
-1480 -1517 0
-1480 -1518 0
-1480 -1519 0
-1480 -1520 0
-1480 -1521 0
-1480 -1522 0
-1480 -1523 0
-1480 -1524 0
-1480 -1525 0
-1480 -1526 0
-1480 -1527 0
-1480 -1528 0
-1480 -1529 0
-1480 -1530 0
-1480 -1531 0
-1480 -1532 0
-1480 -1533 0
-1480 -1534 0
-1480 -1535 0
-1480 -1536 0
-1480 -1537 0
-1480 -1538 0
-1480 -1539 0
-1480 -1540 0
-1480 -1541 0
-1480 -1542 0
-1480 -1543 0
-1480 -1544 0
-1480 -1545 0
-1480 -1546 0
-1480 -1547 0
-1481 -1482 0
-1481 -1483 0
-1481 -1484 0
-1481 -1485 0
-1481 -1486 0
-1481 -1487 0
-1481 -1488 0
-1481 -1489 0
-1481 -1490 0
-1481 -1491 0
-1481 -1492 0
-1481 -1493 0
-1481 -1494 0
-1481 -1495 0
-1481 -1496 0
-1481 -1497 0
-1481 -1498 0
-1481 -1499 0
-1481 -1500 0
-1481 -1501 0
-1481 -1502 0
-1481 -1503 0
-1481 -1504 0
-1481 -1505 0
-1481 -1506 0
-1481 -1507 0
-1481 -1508 0
-1481 -1509 0
-1481 -1510 0
-1481 -1511 0
-1481 -1512 0
-1481 -1513 0
-1481 -1514 0
-1481 -1515 0
-1481 -1516 0
-1481 -1517 0
-1481 -1518 0
-1481 -1519 0
-1481 -1520 0
-1481 -1521 0
-1481 -1522 0
-1481 -1523 0
-1481 -1524 0
-1481 -1525 0
-1481 -1526 0
-1481 -1527 0
-1481 -1528 0
-1481 -1529 0
-1481 -1530 0
-1481 -1531 0
-1481 -1532 0
-1481 -1533 0
-1481 -1534 0
-1481 -1535 0
-1481 -1536 0
-1481 -1537 0
-1481 -1538 0
-1481 -1539 0
-1481 -1540 0
-1481 -1541 0
-1481 -1542 0
-1481 -1543 0
-1481 -1544 0
-1481 -1545 0
-1481 -1546 0
-1481 -1547 0
-1482 -1483 0
-1482 -1484 0
-1482 -1485 0
-1482 -1486 0
-1482 -1487 0
-1482 -1488 0
-1482 -1489 0
-1482 -1490 0
-1482 -1491 0
-1482 -1492 0
-1482 -1493 0
-1482 -1494 0
-1482 -1495 0
-1482 -1496 0
-1482 -1497 0
-1482 -1498 0
-1482 -1499 0
-1482 -1500 0
-1482 -1501 0
-1482 -1502 0
-1482 -1503 0
-1482 -1504 0
-1482 -1505 0
-1482 -1506 0
-1482 -1507 0
-1482 -1508 0
-1482 -1509 0
-1482 -1510 0
-1482 -1511 0
-1482 -1512 0
-1482 -1513 0
-1482 -1514 0
-1482 -1515 0
-1482 -1516 0
-1482 -1517 0
-1482 -1518 0
-1482 -1519 0
-1482 -1520 0
-1482 -1521 0
-1482 -1522 0
-1482 -1523 0
-1482 -1524 0
-1482 -1525 0
-1482 -1526 0
-1482 -1527 0
-1482 -1528 0
-1482 -1529 0
-1482 -1530 0
-1482 -1531 0
-1482 -1532 0
-1482 -1533 0
-1482 -1534 0
-1482 -1535 0
-1482 -1536 0
-1482 -1537 0
-1482 -1538 0
-1482 -1539 0
-1482 -1540 0
-1482 -1541 0
-1482 -1542 0
-1482 -1543 0
-1482 -1544 0
-1482 -1545 0
-1482 -1546 0
-1482 -1547 0
-1483 -1484 0
-1483 -1485 0
-1483 -1486 0
-1483 -1487 0
-1483 -1488 0
-1483 -1489 0
-1483 -1490 0
-1483 -1491 0
-1483 -1492 0
-1483 -1493 0
-1483 -1494 0
-1483 -1495 0
-1483 -1496 0
-1483 -1497 0
-1483 -1498 0
-1483 -1499 0
-1483 -1500 0
-1483 -1501 0
-1483 -1502 0
-1483 -1503 0
-1483 -1504 0
-1483 -1505 0
-1483 -1506 0
-1483 -1507 0
-1483 -1508 0
-1483 -1509 0
-1483 -1510 0
-1483 -1511 0
-1483 -1512 0
-1483 -1513 0
-1483 -1514 0
-1483 -1515 0
-1483 -1516 0
-1483 -1517 0
-1483 -1518 0
-1483 -1519 0
-1483 -1520 0
-1483 -1521 0
-1483 -1522 0
-1483 -1523 0
-1483 -1524 0
-1483 -1525 0
-1483 -1526 0
-1483 -1527 0
-1483 -1528 0
-1483 -1529 0
-1483 -1530 0
-1483 -1531 0
-1483 -1532 0
-1483 -1533 0
-1483 -1534 0
-1483 -1535 0
-1483 -1536 0
-1483 -1537 0
-1483 -1538 0
-1483 -1539 0
-1483 -1540 0
-1483 -1541 0
-1483 -1542 0
-1483 -1543 0
-1483 -1544 0
-1483 -1545 0
-1483 -1546 0
-1483 -1547 0
-1484 -1485 0
-1484 -1486 0
-1484 -1487 0
-1484 -1488 0
-1484 -1489 0
-1484 -1490 0
-1484 -1491 0
-1484 -1492 0
-1484 -1493 0
-1484 -1494 0
-1484 -1495 0
-1484 -1496 0
-1484 -1497 0
-1484 -1498 0
-1484 -1499 0
-1484 -1500 0
-1484 -1501 0
-1484 -1502 0
-1484 -1503 0
-1484 -1504 0
-1484 -1505 0
-1484 -1506 0
-1484 -1507 0
-1484 -1508 0
-1484 -1509 0
-1484 -1510 0
-1484 -1511 0
-1484 -1512 0
-1484 -1513 0
-1484 -1514 0
-1484 -1515 0
-1484 -1516 0
-1484 -1517 0
-1484 -1518 0
-1484 -1519 0
-1484 -1520 0
-1484 -1521 0
-1484 -1522 0
-1484 -1523 0
-1484 -1524 0
-1484 -1525 0
-1484 -1526 0
-1484 -1527 0
-1484 -1528 0
-1484 -1529 0
-1484 -1530 0
-1484 -1531 0
-1484 -1532 0
-1484 -1533 0
-1484 -1534 0
-1484 -1535 0
-1484 -1536 0
-1484 -1537 0
-1484 -1538 0
-1484 -1539 0
-1484 -1540 0
-1484 -1541 0
-1484 -1542 0
-1484 -1543 0
-1484 -1544 0
-1484 -1545 0
-1484 -1546 0
-1484 -1547 0
-1485 -1486 0
-1485 -1487 0
-1485 -1488 0
-1485 -1489 0
-1485 -1490 0
-1485 -1491 0
-1485 -1492 0
-1485 -1493 0
-1485 -1494 0
-1485 -1495 0
-1485 -1496 0
-1485 -1497 0
-1485 -1498 0
-1485 -1499 0
-1485 -1500 0
-1485 -1501 0
-1485 -1502 0
-1485 -1503 0
-1485 -1504 0
-1485 -1505 0
-1485 -1506 0
-1485 -1507 0
-1485 -1508 0
-1485 -1509 0
-1485 -1510 0
-1485 -1511 0
-1485 -1512 0
-1485 -1513 0
-1485 -1514 0
-1485 -1515 0
-1485 -1516 0
-1485 -1517 0
-1485 -1518 0
-1485 -1519 0
-1485 -1520 0
-1485 -1521 0
-1485 -1522 0
-1485 -1523 0
-1485 -1524 0
-1485 -1525 0
-1485 -1526 0
-1485 -1527 0
-1485 -1528 0
-1485 -1529 0
-1485 -1530 0
-1485 -1531 0
-1485 -1532 0
-1485 -1533 0
-1485 -1534 0
-1485 -1535 0
-1485 -1536 0
-1485 -1537 0
-1485 -1538 0
-1485 -1539 0
-1485 -1540 0
-1485 -1541 0
-1485 -1542 0
-1485 -1543 0
-1485 -1544 0
-1485 -1545 0
-1485 -1546 0
-1485 -1547 0
-1486 -1487 0
-1486 -1488 0
-1486 -1489 0
-1486 -1490 0
-1486 -1491 0
-1486 -1492 0
-1486 -1493 0
-1486 -1494 0
-1486 -1495 0
-1486 -1496 0
-1486 -1497 0
-1486 -1498 0
-1486 -1499 0
-1486 -1500 0
-1486 -1501 0
-1486 -1502 0
-1486 -1503 0
-1486 -1504 0
-1486 -1505 0
-1486 -1506 0
-1486 -1507 0
-1486 -1508 0
-1486 -1509 0
-1486 -1510 0
-1486 -1511 0
-1486 -1512 0
-1486 -1513 0
-1486 -1514 0
-1486 -1515 0
-1486 -1516 0
-1486 -1517 0
-1486 -1518 0
-1486 -1519 0
-1486 -1520 0
-1486 -1521 0
-1486 -1522 0
-1486 -1523 0
-1486 -1524 0
-1486 -1525 0
-1486 -1526 0
-1486 -1527 0
-1486 -1528 0
-1486 -1529 0
-1486 -1530 0
-1486 -1531 0
-1486 -1532 0
-1486 -1533 0
-1486 -1534 0
-1486 -1535 0
-1486 -1536 0
-1486 -1537 0
-1486 -1538 0
-1486 -1539 0
-1486 -1540 0
-1486 -1541 0
-1486 -1542 0
-1486 -1543 0
-1486 -1544 0
-1486 -1545 0
-1486 -1546 0
-1486 -1547 0
-1487 -1488 0
-1487 -1489 0
-1487 -1490 0
-1487 -1491 0
-1487 -1492 0
-1487 -1493 0
-1487 -1494 0
-1487 -1495 0
-1487 -1496 0
-1487 -1497 0
-1487 -1498 0
-1487 -1499 0
-1487 -1500 0
-1487 -1501 0
-1487 -1502 0
-1487 -1503 0
-1487 -1504 0
-1487 -1505 0
-1487 -1506 0
-1487 -1507 0
-1487 -1508 0
-1487 -1509 0
-1487 -1510 0
-1487 -1511 0
-1487 -1512 0
-1487 -1513 0
-1487 -1514 0
-1487 -1515 0
-1487 -1516 0
-1487 -1517 0
-1487 -1518 0
-1487 -1519 0
-1487 -1520 0
-1487 -1521 0
-1487 -1522 0
-1487 -1523 0
-1487 -1524 0
-1487 -1525 0
-1487 -1526 0
-1487 -1527 0
-1487 -1528 0
-1487 -1529 0
-1487 -1530 0
-1487 -1531 0
-1487 -1532 0
-1487 -1533 0
-1487 -1534 0
-1487 -1535 0
-1487 -1536 0
-1487 -1537 0
-1487 -1538 0
-1487 -1539 0
-1487 -1540 0
-1487 -1541 0
-1487 -1542 0
-1487 -1543 0
-1487 -1544 0
-1487 -1545 0
-1487 -1546 0
-1487 -1547 0
-1488 -1489 0
-1488 -1490 0
-1488 -1491 0
-1488 -1492 0
-1488 -1493 0
-1488 -1494 0
-1488 -1495 0
-1488 -1496 0
-1488 -1497 0
-1488 -1498 0
-1488 -1499 0
-1488 -1500 0
-1488 -1501 0
-1488 -1502 0
-1488 -1503 0
-1488 -1504 0
-1488 -1505 0
-1488 -1506 0
-1488 -1507 0
-1488 -1508 0
-1488 -1509 0
-1488 -1510 0
-1488 -1511 0
-1488 -1512 0
-1488 -1513 0
-1488 -1514 0
-1488 -1515 0
-1488 -1516 0
-1488 -1517 0
-1488 -1518 0
-1488 -1519 0
-1488 -1520 0
-1488 -1521 0
-1488 -1522 0
-1488 -1523 0
-1488 -1524 0
-1488 -1525 0
-1488 -1526 0
-1488 -1527 0
-1488 -1528 0
-1488 -1529 0
-1488 -1530 0
-1488 -1531 0
-1488 -1532 0
-1488 -1533 0
-1488 -1534 0
-1488 -1535 0
-1488 -1536 0
-1488 -1537 0
-1488 -1538 0
-1488 -1539 0
-1488 -1540 0
-1488 -1541 0
-1488 -1542 0
-1488 -1543 0
-1488 -1544 0
-1488 -1545 0
-1488 -1546 0
-1488 -1547 0
-1489 -1490 0
-1489 -1491 0
-1489 -1492 0
-1489 -1493 0
-1489 -1494 0
-1489 -1495 0
-1489 -1496 0
-1489 -1497 0
-1489 -1498 0
-1489 -1499 0
-1489 -1500 0
-1489 -1501 0
-1489 -1502 0
-1489 -1503 0
-1489 -1504 0
-1489 -1505 0
-1489 -1506 0
-1489 -1507 0
-1489 -1508 0
-1489 -1509 0
-1489 -1510 0
-1489 -1511 0
-1489 -1512 0
-1489 -1513 0
-1489 -1514 0
-1489 -1515 0
-1489 -1516 0
-1489 -1517 0
-1489 -1518 0
-1489 -1519 0
-1489 -1520 0
-1489 -1521 0
-1489 -1522 0
-1489 -1523 0
-1489 -1524 0
-1489 -1525 0
-1489 -1526 0
-1489 -1527 0
-1489 -1528 0
-1489 -1529 0
-1489 -1530 0
-1489 -1531 0
-1489 -1532 0
-1489 -1533 0
-1489 -1534 0
-1489 -1535 0
-1489 -1536 0
-1489 -1537 0
-1489 -1538 0
-1489 -1539 0
-1489 -1540 0
-1489 -1541 0
-1489 -1542 0
-1489 -1543 0
-1489 -1544 0
-1489 -1545 0
-1489 -1546 0
-1489 -1547 0
-1490 -1491 0
-1490 -1492 0
-1490 -1493 0
-1490 -1494 0
-1490 -1495 0
-1490 -1496 0
-1490 -1497 0
-1490 -1498 0
-1490 -1499 0
-1490 -1500 0
-1490 -1501 0
-1490 -1502 0
-1490 -1503 0
-1490 -1504 0
-1490 -1505 0
-1490 -1506 0
-1490 -1507 0
-1490 -1508 0
-1490 -1509 0
-1490 -1510 0
-1490 -1511 0
-1490 -1512 0
-1490 -1513 0
-1490 -1514 0
-1490 -1515 0
-1490 -1516 0
-1490 -1517 0
-1490 -1518 0
-1490 -1519 0
-1490 -1520 0
-1490 -1521 0
-1490 -1522 0
-1490 -1523 0
-1490 -1524 0
-1490 -1525 0
-1490 -1526 0
-1490 -1527 0
-1490 -1528 0
-1490 -1529 0
-1490 -1530 0
-1490 -1531 0
-1490 -1532 0
-1490 -1533 0
-1490 -1534 0
-1490 -1535 0
-1490 -1536 0
-1490 -1537 0
-1490 -1538 0
-1490 -1539 0
-1490 -1540 0
-1490 -1541 0
-1490 -1542 0
-1490 -1543 0
-1490 -1544 0
-1490 -1545 0
-1490 -1546 0
-1490 -1547 0
-1491 -1492 0
-1491 -1493 0
-1491 -1494 0
-1491 -1495 0
-1491 -1496 0
-1491 -1497 0
-1491 -1498 0
-1491 -1499 0
-1491 -1500 0
-1491 -1501 0
-1491 -1502 0
-1491 -1503 0
-1491 -1504 0
-1491 -1505 0
-1491 -1506 0
-1491 -1507 0
-1491 -1508 0
-1491 -1509 0
-1491 -1510 0
-1491 -1511 0
-1491 -1512 0
-1491 -1513 0
-1491 -1514 0
-1491 -1515 0
-1491 -1516 0
-1491 -1517 0
-1491 -1518 0
-1491 -1519 0
-1491 -1520 0
-1491 -1521 0
-1491 -1522 0
-1491 -1523 0
-1491 -1524 0
-1491 -1525 0
-1491 -1526 0
-1491 -1527 0
-1491 -1528 0
-1491 -1529 0
-1491 -1530 0
-1491 -1531 0
-1491 -1532 0
-1491 -1533 0
-1491 -1534 0
-1491 -1535 0
-1491 -1536 0
-1491 -1537 0
-1491 -1538 0
-1491 -1539 0
-1491 -1540 0
-1491 -1541 0
-1491 -1542 0
-1491 -1543 0
-1491 -1544 0
-1491 -1545 0
-1491 -1546 0
-1491 -1547 0
-1492 -1493 0
-1492 -1494 0
-1492 -1495 0
-1492 -1496 0
-1492 -1497 0
-1492 -1498 0
-1492 -1499 0
-1492 -1500 0
-1492 -1501 0
-1492 -1502 0
-1492 -1503 0
-1492 -1504 0
-1492 -1505 0
-1492 -1506 0
-1492 -1507 0
-1492 -1508 0
-1492 -1509 0
-1492 -1510 0
-1492 -1511 0
-1492 -1512 0
-1492 -1513 0
-1492 -1514 0
-1492 -1515 0
-1492 -1516 0
-1492 -1517 0
-1492 -1518 0
-1492 -1519 0
-1492 -1520 0
-1492 -1521 0
-1492 -1522 0
-1492 -1523 0
-1492 -1524 0
-1492 -1525 0
-1492 -1526 0
-1492 -1527 0
-1492 -1528 0
-1492 -1529 0
-1492 -1530 0
-1492 -1531 0
-1492 -1532 0
-1492 -1533 0
-1492 -1534 0
-1492 -1535 0
-1492 -1536 0
-1492 -1537 0
-1492 -1538 0
-1492 -1539 0
-1492 -1540 0
-1492 -1541 0
-1492 -1542 0
-1492 -1543 0
-1492 -1544 0
-1492 -1545 0
-1492 -1546 0
-1492 -1547 0
-1493 -1494 0
-1493 -1495 0
-1493 -1496 0
-1493 -1497 0
-1493 -1498 0
-1493 -1499 0
-1493 -1500 0
-1493 -1501 0
-1493 -1502 0
-1493 -1503 0
-1493 -1504 0
-1493 -1505 0
-1493 -1506 0
-1493 -1507 0
-1493 -1508 0
-1493 -1509 0
-1493 -1510 0
-1493 -1511 0
-1493 -1512 0
-1493 -1513 0
-1493 -1514 0
-1493 -1515 0
-1493 -1516 0
-1493 -1517 0
-1493 -1518 0
-1493 -1519 0
-1493 -1520 0
-1493 -1521 0
-1493 -1522 0
-1493 -1523 0
-1493 -1524 0
-1493 -1525 0
-1493 -1526 0
-1493 -1527 0
-1493 -1528 0
-1493 -1529 0
-1493 -1530 0
-1493 -1531 0
-1493 -1532 0
-1493 -1533 0
-1493 -1534 0
-1493 -1535 0
-1493 -1536 0
-1493 -1537 0
-1493 -1538 0
-1493 -1539 0
-1493 -1540 0
-1493 -1541 0
-1493 -1542 0
-1493 -1543 0
-1493 -1544 0
-1493 -1545 0
-1493 -1546 0
-1493 -1547 0
-1494 -1495 0
-1494 -1496 0
-1494 -1497 0
-1494 -1498 0
-1494 -1499 0
-1494 -1500 0
-1494 -1501 0
-1494 -1502 0
-1494 -1503 0
-1494 -1504 0
-1494 -1505 0
-1494 -1506 0
-1494 -1507 0
-1494 -1508 0
-1494 -1509 0
-1494 -1510 0
-1494 -1511 0
-1494 -1512 0
-1494 -1513 0
-1494 -1514 0
-1494 -1515 0
-1494 -1516 0
-1494 -1517 0
-1494 -1518 0
-1494 -1519 0
-1494 -1520 0
-1494 -1521 0
-1494 -1522 0
-1494 -1523 0
-1494 -1524 0
-1494 -1525 0
-1494 -1526 0
-1494 -1527 0
-1494 -1528 0
-1494 -1529 0
-1494 -1530 0
-1494 -1531 0
-1494 -1532 0
-1494 -1533 0
-1494 -1534 0
-1494 -1535 0
-1494 -1536 0
-1494 -1537 0
-1494 -1538 0
-1494 -1539 0
-1494 -1540 0
-1494 -1541 0
-1494 -1542 0
-1494 -1543 0
-1494 -1544 0
-1494 -1545 0
-1494 -1546 0
-1494 -1547 0
-1495 -1496 0
-1495 -1497 0
-1495 -1498 0
-1495 -1499 0
-1495 -1500 0
-1495 -1501 0
-1495 -1502 0
-1495 -1503 0
-1495 -1504 0
-1495 -1505 0
-1495 -1506 0
-1495 -1507 0
-1495 -1508 0
-1495 -1509 0
-1495 -1510 0
-1495 -1511 0
-1495 -1512 0
-1495 -1513 0
-1495 -1514 0
-1495 -1515 0
-1495 -1516 0
-1495 -1517 0
-1495 -1518 0
-1495 -1519 0
-1495 -1520 0
-1495 -1521 0
-1495 -1522 0
-1495 -1523 0
-1495 -1524 0
-1495 -1525 0
-1495 -1526 0
-1495 -1527 0
-1495 -1528 0
-1495 -1529 0
-1495 -1530 0
-1495 -1531 0
-1495 -1532 0
-1495 -1533 0
-1495 -1534 0
-1495 -1535 0
-1495 -1536 0
-1495 -1537 0
-1495 -1538 0
-1495 -1539 0
-1495 -1540 0
-1495 -1541 0
-1495 -1542 0
-1495 -1543 0
-1495 -1544 0
-1495 -1545 0
-1495 -1546 0
-1495 -1547 0
-1496 -1497 0
-1496 -1498 0
-1496 -1499 0
-1496 -1500 0
-1496 -1501 0
-1496 -1502 0
-1496 -1503 0
-1496 -1504 0
-1496 -1505 0
-1496 -1506 0
-1496 -1507 0
-1496 -1508 0
-1496 -1509 0
-1496 -1510 0
-1496 -1511 0
-1496 -1512 0
-1496 -1513 0
-1496 -1514 0
-1496 -1515 0
-1496 -1516 0
-1496 -1517 0
-1496 -1518 0
-1496 -1519 0
-1496 -1520 0
-1496 -1521 0
-1496 -1522 0
-1496 -1523 0
-1496 -1524 0
-1496 -1525 0
-1496 -1526 0
-1496 -1527 0
-1496 -1528 0
-1496 -1529 0
-1496 -1530 0
-1496 -1531 0
-1496 -1532 0
-1496 -1533 0
-1496 -1534 0
-1496 -1535 0
-1496 -1536 0
-1496 -1537 0
-1496 -1538 0
-1496 -1539 0
-1496 -1540 0
-1496 -1541 0
-1496 -1542 0
-1496 -1543 0
-1496 -1544 0
-1496 -1545 0
-1496 -1546 0
-1496 -1547 0
-1497 -1498 0
-1497 -1499 0
-1497 -1500 0
-1497 -1501 0
-1497 -1502 0
-1497 -1503 0
-1497 -1504 0
-1497 -1505 0
-1497 -1506 0
-1497 -1507 0
-1497 -1508 0
-1497 -1509 0
-1497 -1510 0
-1497 -1511 0
-1497 -1512 0
-1497 -1513 0
-1497 -1514 0
-1497 -1515 0
-1497 -1516 0
-1497 -1517 0
-1497 -1518 0
-1497 -1519 0
-1497 -1520 0
-1497 -1521 0
-1497 -1522 0
-1497 -1523 0
-1497 -1524 0
-1497 -1525 0
-1497 -1526 0
-1497 -1527 0
-1497 -1528 0
-1497 -1529 0
-1497 -1530 0
-1497 -1531 0
-1497 -1532 0
-1497 -1533 0
-1497 -1534 0
-1497 -1535 0
-1497 -1536 0
-1497 -1537 0
-1497 -1538 0
-1497 -1539 0
-1497 -1540 0
-1497 -1541 0
-1497 -1542 0
-1497 -1543 0
-1497 -1544 0
-1497 -1545 0
-1497 -1546 0
-1497 -1547 0
-1498 -1499 0
-1498 -1500 0
-1498 -1501 0
-1498 -1502 0
-1498 -1503 0
-1498 -1504 0
-1498 -1505 0
-1498 -1506 0
-1498 -1507 0
-1498 -1508 0
-1498 -1509 0
-1498 -1510 0
-1498 -1511 0
-1498 -1512 0
-1498 -1513 0
-1498 -1514 0
-1498 -1515 0
-1498 -1516 0
-1498 -1517 0
-1498 -1518 0
-1498 -1519 0
-1498 -1520 0
-1498 -1521 0
-1498 -1522 0
-1498 -1523 0
-1498 -1524 0
-1498 -1525 0
-1498 -1526 0
-1498 -1527 0
-1498 -1528 0
-1498 -1529 0
-1498 -1530 0
-1498 -1531 0
-1498 -1532 0
-1498 -1533 0
-1498 -1534 0
-1498 -1535 0
-1498 -1536 0
-1498 -1537 0
-1498 -1538 0
-1498 -1539 0
-1498 -1540 0
-1498 -1541 0
-1498 -1542 0
-1498 -1543 0
-1498 -1544 0
-1498 -1545 0
-1498 -1546 0
-1498 -1547 0
-1499 -1500 0
-1499 -1501 0
-1499 -1502 0
-1499 -1503 0
-1499 -1504 0
-1499 -1505 0
-1499 -1506 0
-1499 -1507 0
-1499 -1508 0
-1499 -1509 0
-1499 -1510 0
-1499 -1511 0
-1499 -1512 0
-1499 -1513 0
-1499 -1514 0
-1499 -1515 0
-1499 -1516 0
-1499 -1517 0
-1499 -1518 0
-1499 -1519 0
-1499 -1520 0
-1499 -1521 0
-1499 -1522 0
-1499 -1523 0
-1499 -1524 0
-1499 -1525 0
-1499 -1526 0
-1499 -1527 0
-1499 -1528 0
-1499 -1529 0
-1499 -1530 0
-1499 -1531 0
-1499 -1532 0
-1499 -1533 0
-1499 -1534 0
-1499 -1535 0
-1499 -1536 0
-1499 -1537 0
-1499 -1538 0
-1499 -1539 0
-1499 -1540 0
-1499 -1541 0
-1499 -1542 0
-1499 -1543 0
-1499 -1544 0
-1499 -1545 0
-1499 -1546 0
-1499 -1547 0
-1500 -1501 0
-1500 -1502 0
-1500 -1503 0
-1500 -1504 0
-1500 -1505 0
-1500 -1506 0
-1500 -1507 0
-1500 -1508 0
-1500 -1509 0
-1500 -1510 0
-1500 -1511 0
-1500 -1512 0
-1500 -1513 0
-1500 -1514 0
-1500 -1515 0
-1500 -1516 0
-1500 -1517 0
-1500 -1518 0
-1500 -1519 0
-1500 -1520 0
-1500 -1521 0
-1500 -1522 0
-1500 -1523 0
-1500 -1524 0
-1500 -1525 0
-1500 -1526 0
-1500 -1527 0
-1500 -1528 0
-1500 -1529 0
-1500 -1530 0
-1500 -1531 0
-1500 -1532 0
-1500 -1533 0
-1500 -1534 0
-1500 -1535 0
-1500 -1536 0
-1500 -1537 0
-1500 -1538 0
-1500 -1539 0
-1500 -1540 0
-1500 -1541 0
-1500 -1542 0
-1500 -1543 0
-1500 -1544 0
-1500 -1545 0
-1500 -1546 0
-1500 -1547 0
-1501 -1502 0
-1501 -1503 0
-1501 -1504 0
-1501 -1505 0
-1501 -1506 0
-1501 -1507 0
-1501 -1508 0
-1501 -1509 0
-1501 -1510 0
-1501 -1511 0
-1501 -1512 0
-1501 -1513 0
-1501 -1514 0
-1501 -1515 0
-1501 -1516 0
-1501 -1517 0
-1501 -1518 0
-1501 -1519 0
-1501 -1520 0
-1501 -1521 0
-1501 -1522 0
-1501 -1523 0
-1501 -1524 0
-1501 -1525 0
-1501 -1526 0
-1501 -1527 0
-1501 -1528 0
-1501 -1529 0
-1501 -1530 0
-1501 -1531 0
-1501 -1532 0
-1501 -1533 0
-1501 -1534 0
-1501 -1535 0
-1501 -1536 0
-1501 -1537 0
-1501 -1538 0
-1501 -1539 0
-1501 -1540 0
-1501 -1541 0
-1501 -1542 0
-1501 -1543 0
-1501 -1544 0
-1501 -1545 0
-1501 -1546 0
-1501 -1547 0
-1502 -1503 0
-1502 -1504 0
-1502 -1505 0
-1502 -1506 0
-1502 -1507 0
-1502 -1508 0
-1502 -1509 0
-1502 -1510 0
-1502 -1511 0
-1502 -1512 0
-1502 -1513 0
-1502 -1514 0
-1502 -1515 0
-1502 -1516 0
-1502 -1517 0
-1502 -1518 0
-1502 -1519 0
-1502 -1520 0
-1502 -1521 0
-1502 -1522 0
-1502 -1523 0
-1502 -1524 0
-1502 -1525 0
-1502 -1526 0
-1502 -1527 0
-1502 -1528 0
-1502 -1529 0
-1502 -1530 0
-1502 -1531 0
-1502 -1532 0
-1502 -1533 0
-1502 -1534 0
-1502 -1535 0
-1502 -1536 0
-1502 -1537 0
-1502 -1538 0
-1502 -1539 0
-1502 -1540 0
-1502 -1541 0
-1502 -1542 0
-1502 -1543 0
-1502 -1544 0
-1502 -1545 0
-1502 -1546 0
-1502 -1547 0
-1503 -1504 0
-1503 -1505 0
-1503 -1506 0
-1503 -1507 0
-1503 -1508 0
-1503 -1509 0
-1503 -1510 0
-1503 -1511 0
-1503 -1512 0
-1503 -1513 0
-1503 -1514 0
-1503 -1515 0
-1503 -1516 0
-1503 -1517 0
-1503 -1518 0
-1503 -1519 0
-1503 -1520 0
-1503 -1521 0
-1503 -1522 0
-1503 -1523 0
-1503 -1524 0
-1503 -1525 0
-1503 -1526 0
-1503 -1527 0
-1503 -1528 0
-1503 -1529 0
-1503 -1530 0
-1503 -1531 0
-1503 -1532 0
-1503 -1533 0
-1503 -1534 0
-1503 -1535 0
-1503 -1536 0
-1503 -1537 0
-1503 -1538 0
-1503 -1539 0
-1503 -1540 0
-1503 -1541 0
-1503 -1542 0
-1503 -1543 0
-1503 -1544 0
-1503 -1545 0
-1503 -1546 0
-1503 -1547 0
-1504 -1505 0
-1504 -1506 0
-1504 -1507 0
-1504 -1508 0
-1504 -1509 0
-1504 -1510 0
-1504 -1511 0
-1504 -1512 0
-1504 -1513 0
-1504 -1514 0
-1504 -1515 0
-1504 -1516 0
-1504 -1517 0
-1504 -1518 0
-1504 -1519 0
-1504 -1520 0
-1504 -1521 0
-1504 -1522 0
-1504 -1523 0
-1504 -1524 0
-1504 -1525 0
-1504 -1526 0
-1504 -1527 0
-1504 -1528 0
-1504 -1529 0
-1504 -1530 0
-1504 -1531 0
-1504 -1532 0
-1504 -1533 0
-1504 -1534 0
-1504 -1535 0
-1504 -1536 0
-1504 -1537 0
-1504 -1538 0
-1504 -1539 0
-1504 -1540 0
-1504 -1541 0
-1504 -1542 0
-1504 -1543 0
-1504 -1544 0
-1504 -1545 0
-1504 -1546 0
-1504 -1547 0
-1505 -1506 0
-1505 -1507 0
-1505 -1508 0
-1505 -1509 0
-1505 -1510 0
-1505 -1511 0
-1505 -1512 0
-1505 -1513 0
-1505 -1514 0
-1505 -1515 0
-1505 -1516 0
-1505 -1517 0
-1505 -1518 0
-1505 -1519 0
-1505 -1520 0
-1505 -1521 0
-1505 -1522 0
-1505 -1523 0
-1505 -1524 0
-1505 -1525 0
-1505 -1526 0
-1505 -1527 0
-1505 -1528 0
-1505 -1529 0
-1505 -1530 0
-1505 -1531 0
-1505 -1532 0
-1505 -1533 0
-1505 -1534 0
-1505 -1535 0
-1505 -1536 0
-1505 -1537 0
-1505 -1538 0
-1505 -1539 0
-1505 -1540 0
-1505 -1541 0
-1505 -1542 0
-1505 -1543 0
-1505 -1544 0
-1505 -1545 0
-1505 -1546 0
-1505 -1547 0
-1506 -1507 0
-1506 -1508 0
-1506 -1509 0
-1506 -1510 0
-1506 -1511 0
-1506 -1512 0
-1506 -1513 0
-1506 -1514 0
-1506 -1515 0
-1506 -1516 0
-1506 -1517 0
-1506 -1518 0
-1506 -1519 0
-1506 -1520 0
-1506 -1521 0
-1506 -1522 0
-1506 -1523 0
-1506 -1524 0
-1506 -1525 0
-1506 -1526 0
-1506 -1527 0
-1506 -1528 0
-1506 -1529 0
-1506 -1530 0
-1506 -1531 0
-1506 -1532 0
-1506 -1533 0
-1506 -1534 0
-1506 -1535 0
-1506 -1536 0
-1506 -1537 0
-1506 -1538 0
-1506 -1539 0
-1506 -1540 0
-1506 -1541 0
-1506 -1542 0
-1506 -1543 0
-1506 -1544 0
-1506 -1545 0
-1506 -1546 0
-1506 -1547 0
-1507 -1508 0
-1507 -1509 0
-1507 -1510 0
-1507 -1511 0
-1507 -1512 0
-1507 -1513 0
-1507 -1514 0
-1507 -1515 0
-1507 -1516 0
-1507 -1517 0
-1507 -1518 0
-1507 -1519 0
-1507 -1520 0
-1507 -1521 0
-1507 -1522 0
-1507 -1523 0
-1507 -1524 0
-1507 -1525 0
-1507 -1526 0
-1507 -1527 0
-1507 -1528 0
-1507 -1529 0
-1507 -1530 0
-1507 -1531 0
-1507 -1532 0
-1507 -1533 0
-1507 -1534 0
-1507 -1535 0
-1507 -1536 0
-1507 -1537 0
-1507 -1538 0
-1507 -1539 0
-1507 -1540 0
-1507 -1541 0
-1507 -1542 0
-1507 -1543 0
-1507 -1544 0
-1507 -1545 0
-1507 -1546 0
-1507 -1547 0
-1508 -1509 0
-1508 -1510 0
-1508 -1511 0
-1508 -1512 0
-1508 -1513 0
-1508 -1514 0
-1508 -1515 0
-1508 -1516 0
-1508 -1517 0
-1508 -1518 0
-1508 -1519 0
-1508 -1520 0
-1508 -1521 0
-1508 -1522 0
-1508 -1523 0
-1508 -1524 0
-1508 -1525 0
-1508 -1526 0
-1508 -1527 0
-1508 -1528 0
-1508 -1529 0
-1508 -1530 0
-1508 -1531 0
-1508 -1532 0
-1508 -1533 0
-1508 -1534 0
-1508 -1535 0
-1508 -1536 0
-1508 -1537 0
-1508 -1538 0
-1508 -1539 0
-1508 -1540 0
-1508 -1541 0
-1508 -1542 0
-1508 -1543 0
-1508 -1544 0
-1508 -1545 0
-1508 -1546 0
-1508 -1547 0
-1509 -1510 0
-1509 -1511 0
-1509 -1512 0
-1509 -1513 0
-1509 -1514 0
-1509 -1515 0
-1509 -1516 0
-1509 -1517 0
-1509 -1518 0
-1509 -1519 0
-1509 -1520 0
-1509 -1521 0
-1509 -1522 0
-1509 -1523 0
-1509 -1524 0
-1509 -1525 0
-1509 -1526 0
-1509 -1527 0
-1509 -1528 0
-1509 -1529 0
-1509 -1530 0
-1509 -1531 0
-1509 -1532 0
-1509 -1533 0
-1509 -1534 0
-1509 -1535 0
-1509 -1536 0
-1509 -1537 0
-1509 -1538 0
-1509 -1539 0
-1509 -1540 0
-1509 -1541 0
-1509 -1542 0
-1509 -1543 0
-1509 -1544 0
-1509 -1545 0
-1509 -1546 0
-1509 -1547 0
-1510 -1511 0
-1510 -1512 0
-1510 -1513 0
-1510 -1514 0
-1510 -1515 0
-1510 -1516 0
-1510 -1517 0
-1510 -1518 0
-1510 -1519 0
-1510 -1520 0
-1510 -1521 0
-1510 -1522 0
-1510 -1523 0
-1510 -1524 0
-1510 -1525 0
-1510 -1526 0
-1510 -1527 0
-1510 -1528 0
-1510 -1529 0
-1510 -1530 0
-1510 -1531 0
-1510 -1532 0
-1510 -1533 0
-1510 -1534 0
-1510 -1535 0
-1510 -1536 0
-1510 -1537 0
-1510 -1538 0
-1510 -1539 0
-1510 -1540 0
-1510 -1541 0
-1510 -1542 0
-1510 -1543 0
-1510 -1544 0
-1510 -1545 0
-1510 -1546 0
-1510 -1547 0
-1511 -1512 0
-1511 -1513 0
-1511 -1514 0
-1511 -1515 0
-1511 -1516 0
-1511 -1517 0
-1511 -1518 0
-1511 -1519 0
-1511 -1520 0
-1511 -1521 0
-1511 -1522 0
-1511 -1523 0
-1511 -1524 0
-1511 -1525 0
-1511 -1526 0
-1511 -1527 0
-1511 -1528 0
-1511 -1529 0
-1511 -1530 0
-1511 -1531 0
-1511 -1532 0
-1511 -1533 0
-1511 -1534 0
-1511 -1535 0
-1511 -1536 0
-1511 -1537 0
-1511 -1538 0
-1511 -1539 0
-1511 -1540 0
-1511 -1541 0
-1511 -1542 0
-1511 -1543 0
-1511 -1544 0
-1511 -1545 0
-1511 -1546 0
-1511 -1547 0
-1512 -1513 0
-1512 -1514 0
-1512 -1515 0
-1512 -1516 0
-1512 -1517 0
-1512 -1518 0
-1512 -1519 0
-1512 -1520 0
-1512 -1521 0
-1512 -1522 0
-1512 -1523 0
-1512 -1524 0
-1512 -1525 0
-1512 -1526 0
-1512 -1527 0
-1512 -1528 0
-1512 -1529 0
-1512 -1530 0
-1512 -1531 0
-1512 -1532 0
-1512 -1533 0
-1512 -1534 0
-1512 -1535 0
-1512 -1536 0
-1512 -1537 0
-1512 -1538 0
-1512 -1539 0
-1512 -1540 0
-1512 -1541 0
-1512 -1542 0
-1512 -1543 0
-1512 -1544 0
-1512 -1545 0
-1512 -1546 0
-1512 -1547 0
-1513 -1514 0
-1513 -1515 0
-1513 -1516 0
-1513 -1517 0
-1513 -1518 0
-1513 -1519 0
-1513 -1520 0
-1513 -1521 0
-1513 -1522 0
-1513 -1523 0
-1513 -1524 0
-1513 -1525 0
-1513 -1526 0
-1513 -1527 0
-1513 -1528 0
-1513 -1529 0
-1513 -1530 0
-1513 -1531 0
-1513 -1532 0
-1513 -1533 0
-1513 -1534 0
-1513 -1535 0
-1513 -1536 0
-1513 -1537 0
-1513 -1538 0
-1513 -1539 0
-1513 -1540 0
-1513 -1541 0
-1513 -1542 0
-1513 -1543 0
-1513 -1544 0
-1513 -1545 0
-1513 -1546 0
-1513 -1547 0
-1514 -1515 0
-1514 -1516 0
-1514 -1517 0
-1514 -1518 0
-1514 -1519 0
-1514 -1520 0
-1514 -1521 0
-1514 -1522 0
-1514 -1523 0
-1514 -1524 0
-1514 -1525 0
-1514 -1526 0
-1514 -1527 0
-1514 -1528 0
-1514 -1529 0
-1514 -1530 0
-1514 -1531 0
-1514 -1532 0
-1514 -1533 0
-1514 -1534 0
-1514 -1535 0
-1514 -1536 0
-1514 -1537 0
-1514 -1538 0
-1514 -1539 0
-1514 -1540 0
-1514 -1541 0
-1514 -1542 0
-1514 -1543 0
-1514 -1544 0
-1514 -1545 0
-1514 -1546 0
-1514 -1547 0
-1515 -1516 0
-1515 -1517 0
-1515 -1518 0
-1515 -1519 0
-1515 -1520 0
-1515 -1521 0
-1515 -1522 0
-1515 -1523 0
-1515 -1524 0
-1515 -1525 0
-1515 -1526 0
-1515 -1527 0
-1515 -1528 0
-1515 -1529 0
-1515 -1530 0
-1515 -1531 0
-1515 -1532 0
-1515 -1533 0
-1515 -1534 0
-1515 -1535 0
-1515 -1536 0
-1515 -1537 0
-1515 -1538 0
-1515 -1539 0
-1515 -1540 0
-1515 -1541 0
-1515 -1542 0
-1515 -1543 0
-1515 -1544 0
-1515 -1545 0
-1515 -1546 0
-1515 -1547 0
-1516 -1517 0
-1516 -1518 0
-1516 -1519 0
-1516 -1520 0
-1516 -1521 0
-1516 -1522 0
-1516 -1523 0
-1516 -1524 0
-1516 -1525 0
-1516 -1526 0
-1516 -1527 0
-1516 -1528 0
-1516 -1529 0
-1516 -1530 0
-1516 -1531 0
-1516 -1532 0
-1516 -1533 0
-1516 -1534 0
-1516 -1535 0
-1516 -1536 0
-1516 -1537 0
-1516 -1538 0
-1516 -1539 0
-1516 -1540 0
-1516 -1541 0
-1516 -1542 0
-1516 -1543 0
-1516 -1544 0
-1516 -1545 0
-1516 -1546 0
-1516 -1547 0
-1517 -1518 0
-1517 -1519 0
-1517 -1520 0
-1517 -1521 0
-1517 -1522 0
-1517 -1523 0
-1517 -1524 0
-1517 -1525 0
-1517 -1526 0
-1517 -1527 0
-1517 -1528 0
-1517 -1529 0
-1517 -1530 0
-1517 -1531 0
-1517 -1532 0
-1517 -1533 0
-1517 -1534 0
-1517 -1535 0
-1517 -1536 0
-1517 -1537 0
-1517 -1538 0
-1517 -1539 0
-1517 -1540 0
-1517 -1541 0
-1517 -1542 0
-1517 -1543 0
-1517 -1544 0
-1517 -1545 0
-1517 -1546 0
-1517 -1547 0
-1518 -1519 0
-1518 -1520 0
-1518 -1521 0
-1518 -1522 0
-1518 -1523 0
-1518 -1524 0
-1518 -1525 0
-1518 -1526 0
-1518 -1527 0
-1518 -1528 0
-1518 -1529 0
-1518 -1530 0
-1518 -1531 0
-1518 -1532 0
-1518 -1533 0
-1518 -1534 0
-1518 -1535 0
-1518 -1536 0
-1518 -1537 0
-1518 -1538 0
-1518 -1539 0
-1518 -1540 0
-1518 -1541 0
-1518 -1542 0
-1518 -1543 0
-1518 -1544 0
-1518 -1545 0
-1518 -1546 0
-1518 -1547 0
-1519 -1520 0
-1519 -1521 0
-1519 -1522 0
-1519 -1523 0
-1519 -1524 0
-1519 -1525 0
-1519 -1526 0
-1519 -1527 0
-1519 -1528 0
-1519 -1529 0
-1519 -1530 0
-1519 -1531 0
-1519 -1532 0
-1519 -1533 0
-1519 -1534 0
-1519 -1535 0
-1519 -1536 0
-1519 -1537 0
-1519 -1538 0
-1519 -1539 0
-1519 -1540 0
-1519 -1541 0
-1519 -1542 0
-1519 -1543 0
-1519 -1544 0
-1519 -1545 0
-1519 -1546 0
-1519 -1547 0
-1520 -1521 0
-1520 -1522 0
-1520 -1523 0
-1520 -1524 0
-1520 -1525 0
-1520 -1526 0
-1520 -1527 0
-1520 -1528 0
-1520 -1529 0
-1520 -1530 0
-1520 -1531 0
-1520 -1532 0
-1520 -1533 0
-1520 -1534 0
-1520 -1535 0
-1520 -1536 0
-1520 -1537 0
-1520 -1538 0
-1520 -1539 0
-1520 -1540 0
-1520 -1541 0
-1520 -1542 0
-1520 -1543 0
-1520 -1544 0
-1520 -1545 0
-1520 -1546 0
-1520 -1547 0
-1521 -1522 0
-1521 -1523 0
-1521 -1524 0
-1521 -1525 0
-1521 -1526 0
-1521 -1527 0
-1521 -1528 0
-1521 -1529 0
-1521 -1530 0
-1521 -1531 0
-1521 -1532 0
-1521 -1533 0
-1521 -1534 0
-1521 -1535 0
-1521 -1536 0
-1521 -1537 0
-1521 -1538 0
-1521 -1539 0
-1521 -1540 0
-1521 -1541 0
-1521 -1542 0
-1521 -1543 0
-1521 -1544 0
-1521 -1545 0
-1521 -1546 0
-1521 -1547 0
-1522 -1523 0
-1522 -1524 0
-1522 -1525 0
-1522 -1526 0
-1522 -1527 0
-1522 -1528 0
-1522 -1529 0
-1522 -1530 0
-1522 -1531 0
-1522 -1532 0
-1522 -1533 0
-1522 -1534 0
-1522 -1535 0
-1522 -1536 0
-1522 -1537 0
-1522 -1538 0
-1522 -1539 0
-1522 -1540 0
-1522 -1541 0
-1522 -1542 0
-1522 -1543 0
-1522 -1544 0
-1522 -1545 0
-1522 -1546 0
-1522 -1547 0
-1523 -1524 0
-1523 -1525 0
-1523 -1526 0
-1523 -1527 0
-1523 -1528 0
-1523 -1529 0
-1523 -1530 0
-1523 -1531 0
-1523 -1532 0
-1523 -1533 0
-1523 -1534 0
-1523 -1535 0
-1523 -1536 0
-1523 -1537 0
-1523 -1538 0
-1523 -1539 0
-1523 -1540 0
-1523 -1541 0
-1523 -1542 0
-1523 -1543 0
-1523 -1544 0
-1523 -1545 0
-1523 -1546 0
-1523 -1547 0
-1524 -1525 0
-1524 -1526 0
-1524 -1527 0
-1524 -1528 0
-1524 -1529 0
-1524 -1530 0
-1524 -1531 0
-1524 -1532 0
-1524 -1533 0
-1524 -1534 0
-1524 -1535 0
-1524 -1536 0
-1524 -1537 0
-1524 -1538 0
-1524 -1539 0
-1524 -1540 0
-1524 -1541 0
-1524 -1542 0
-1524 -1543 0
-1524 -1544 0
-1524 -1545 0
-1524 -1546 0
-1524 -1547 0
-1525 -1526 0
-1525 -1527 0
-1525 -1528 0
-1525 -1529 0
-1525 -1530 0
-1525 -1531 0
-1525 -1532 0
-1525 -1533 0
-1525 -1534 0
-1525 -1535 0
-1525 -1536 0
-1525 -1537 0
-1525 -1538 0
-1525 -1539 0
-1525 -1540 0
-1525 -1541 0
-1525 -1542 0
-1525 -1543 0
-1525 -1544 0
-1525 -1545 0
-1525 -1546 0
-1525 -1547 0
-1526 -1527 0
-1526 -1528 0
-1526 -1529 0
-1526 -1530 0
-1526 -1531 0
-1526 -1532 0
-1526 -1533 0
-1526 -1534 0
-1526 -1535 0
-1526 -1536 0
-1526 -1537 0
-1526 -1538 0
-1526 -1539 0
-1526 -1540 0
-1526 -1541 0
-1526 -1542 0
-1526 -1543 0
-1526 -1544 0
-1526 -1545 0
-1526 -1546 0
-1526 -1547 0
-1527 -1528 0
-1527 -1529 0
-1527 -1530 0
-1527 -1531 0
-1527 -1532 0
-1527 -1533 0
-1527 -1534 0
-1527 -1535 0
-1527 -1536 0
-1527 -1537 0
-1527 -1538 0
-1527 -1539 0
-1527 -1540 0
-1527 -1541 0
-1527 -1542 0
-1527 -1543 0
-1527 -1544 0
-1527 -1545 0
-1527 -1546 0
-1527 -1547 0
-1528 -1529 0
-1528 -1530 0
-1528 -1531 0
-1528 -1532 0
-1528 -1533 0
-1528 -1534 0
-1528 -1535 0
-1528 -1536 0
-1528 -1537 0
-1528 -1538 0
-1528 -1539 0
-1528 -1540 0
-1528 -1541 0
-1528 -1542 0
-1528 -1543 0
-1528 -1544 0
-1528 -1545 0
-1528 -1546 0
-1528 -1547 0
-1529 -1530 0
-1529 -1531 0
-1529 -1532 0
-1529 -1533 0
-1529 -1534 0
-1529 -1535 0
-1529 -1536 0
-1529 -1537 0
-1529 -1538 0
-1529 -1539 0
-1529 -1540 0
-1529 -1541 0
-1529 -1542 0
-1529 -1543 0
-1529 -1544 0
-1529 -1545 0
-1529 -1546 0
-1529 -1547 0
-1530 -1531 0
-1530 -1532 0
-1530 -1533 0
-1530 -1534 0
-1530 -1535 0
-1530 -1536 0
-1530 -1537 0
-1530 -1538 0
-1530 -1539 0
-1530 -1540 0
-1530 -1541 0
-1530 -1542 0
-1530 -1543 0
-1530 -1544 0
-1530 -1545 0
-1530 -1546 0
-1530 -1547 0
-1531 -1532 0
-1531 -1533 0
-1531 -1534 0
-1531 -1535 0
-1531 -1536 0
-1531 -1537 0
-1531 -1538 0
-1531 -1539 0
-1531 -1540 0
-1531 -1541 0
-1531 -1542 0
-1531 -1543 0
-1531 -1544 0
-1531 -1545 0
-1531 -1546 0
-1531 -1547 0
-1532 -1533 0
-1532 -1534 0
-1532 -1535 0
-1532 -1536 0
-1532 -1537 0
-1532 -1538 0
-1532 -1539 0
-1532 -1540 0
-1532 -1541 0
-1532 -1542 0
-1532 -1543 0
-1532 -1544 0
-1532 -1545 0
-1532 -1546 0
-1532 -1547 0
-1533 -1534 0
-1533 -1535 0
-1533 -1536 0
-1533 -1537 0
-1533 -1538 0
-1533 -1539 0
-1533 -1540 0
-1533 -1541 0
-1533 -1542 0
-1533 -1543 0
-1533 -1544 0
-1533 -1545 0
-1533 -1546 0
-1533 -1547 0
-1534 -1535 0
-1534 -1536 0
-1534 -1537 0
-1534 -1538 0
-1534 -1539 0
-1534 -1540 0
-1534 -1541 0
-1534 -1542 0
-1534 -1543 0
-1534 -1544 0
-1534 -1545 0
-1534 -1546 0
-1534 -1547 0
-1535 -1536 0
-1535 -1537 0
-1535 -1538 0
-1535 -1539 0
-1535 -1540 0
-1535 -1541 0
-1535 -1542 0
-1535 -1543 0
-1535 -1544 0
-1535 -1545 0
-1535 -1546 0
-1535 -1547 0
-1536 -1537 0
-1536 -1538 0
-1536 -1539 0
-1536 -1540 0
-1536 -1541 0
-1536 -1542 0
-1536 -1543 0
-1536 -1544 0
-1536 -1545 0
-1536 -1546 0
-1536 -1547 0
-1537 -1538 0
-1537 -1539 0
-1537 -1540 0
-1537 -1541 0
-1537 -1542 0
-1537 -1543 0
-1537 -1544 0
-1537 -1545 0
-1537 -1546 0
-1537 -1547 0
-1538 -1539 0
-1538 -1540 0
-1538 -1541 0
-1538 -1542 0
-1538 -1543 0
-1538 -1544 0
-1538 -1545 0
-1538 -1546 0
-1538 -1547 0
-1539 -1540 0
-1539 -1541 0
-1539 -1542 0
-1539 -1543 0
-1539 -1544 0
-1539 -1545 0
-1539 -1546 0
-1539 -1547 0
-1540 -1541 0
-1540 -1542 0
-1540 -1543 0
-1540 -1544 0
-1540 -1545 0
-1540 -1546 0
-1540 -1547 0
-1541 -1542 0
-1541 -1543 0
-1541 -1544 0
-1541 -1545 0
-1541 -1546 0
-1541 -1547 0
-1542 -1543 0
-1542 -1544 0
-1542 -1545 0
-1542 -1546 0
-1542 -1547 0
-1543 -1544 0
-1543 -1545 0
-1543 -1546 0
-1543 -1547 0
-1544 -1545 0
-1544 -1546 0
-1544 -1547 0
-1545 -1546 0
-1545 -1547 0
-1546 -1547 0
-1464 408 0
-1464 556 0
-1464 -378 0
-1464 -379 0
-1464 -380 0
-1464 -381 0
-1464 -382 0
-1464 -396 578 0
-1464 -396 -461 0
-1464 -396 -485 0
-1464 -396 -509 0
-1464 -396 -371 -393 0
-1464 -397 579 0
-1464 -397 -462 0
-1464 -397 -486 0
-1464 -397 -510 0
-1464 -397 -371 -394 0
-1464 -398 580 0
-1464 -398 -463 0
-1464 -398 -487 0
-1464 -398 -511 0
-1464 -398 -371 -395 0
-1464 -399 0
-1465 408 0
-1465 557 0
-1465 -377 0
-1465 -379 0
-1465 -380 0
-1465 -381 0
-1465 -382 0
-1465 -396 578 0
-1465 -396 -465 0
-1465 -396 -489 0
-1465 -396 -513 0
-1465 -396 -372 -393 0
-1465 -397 579 0
-1465 -397 -466 0
-1465 -397 -490 0
-1465 -397 -514 0
-1465 -397 -372 -394 0
-1465 -398 580 0
-1465 -398 -467 0
-1465 -398 -491 0
-1465 -398 -515 0
-1465 -398 -372 -395 0
-1465 -399 0
-1466 408 0
-1466 558 0
-1466 -377 0
-1466 -378 0
-1466 -380 0
-1466 -381 0
-1466 -382 0
-1466 -396 578 0
-1466 -396 -469 0
-1466 -396 -493 0
-1466 -396 -517 0
-1466 -396 -373 -393 0
-1466 -397 579 0
-1466 -397 -470 0
-1466 -397 -494 0
-1466 -397 -518 0
-1466 -397 -373 -394 0
-1466 -398 580 0
-1466 -398 -471 0
-1466 -398 -495 0
-1466 -398 -519 0
-1466 -398 -373 -395 0
-1466 -399 0
-1467 408 0
-1467 559 0
-1467 -377 0
-1467 -378 0
-1467 -379 0
-1467 -381 0
-1467 -382 0
-1467 -396 578 0
-1467 -396 -473 0
-1467 -396 -497 0
-1467 -396 -521 0
-1467 -396 -374 -393 0
-1467 -397 579 0
-1467 -397 -474 0
-1467 -397 -498 0
-1467 -397 -522 0
-1467 -397 -374 -394 0
-1467 -398 580 0
-1467 -398 -475 0
-1467 -398 -499 0
-1467 -398 -523 0
-1467 -398 -374 -395 0
-1467 -399 0
-1468 408 0
-1468 560 0
-1468 -377 0
-1468 -378 0
-1468 -379 0
-1468 -380 0
-1468 -382 0
-1468 -396 578 0
-1468 -396 -477 0
-1468 -396 -501 0
-1468 -396 -525 0
-1468 -396 -375 -393 0
-1468 -397 579 0
-1468 -397 -478 0
-1468 -397 -502 0
-1468 -397 -526 0
-1468 -397 -375 -394 0
-1468 -398 580 0
-1468 -398 -479 0
-1468 -398 -503 0
-1468 -398 -527 0
-1468 -398 -375 -395 0
-1468 -399 0
-1469 408 0
-1469 561 0
-1469 -377 0
-1469 -378 0
-1469 -379 0
-1469 -380 0
-1469 -381 0
-1469 -396 578 0
-1469 -396 -481 0
-1469 -396 -505 0
-1469 -396 -529 0
-1469 -396 -376 -393 0
-1469 -397 579 0
-1469 -397 -482 0
-1469 -397 -506 0
-1469 -397 -530 0
-1469 -397 -376 -394 0
-1469 -398 580 0
-1469 -398 -483 0
-1469 -398 -507 0
-1469 -398 -531 0
-1469 -398 -376 -395 0
-1469 -399 0
-1470 408 0
-1470 556 0
-1470 -384 0
-1470 -385 0
-1470 -386 0
-1470 -387 0
-1470 -400 578 0
-1470 -400 -461 0
-1470 -400 -485 0
-1470 -400 -509 0
-1470 -400 -371 -393 0
-1470 -401 579 0
-1470 -401 -462 0
-1470 -401 -486 0
-1470 -401 -510 0
-1470 -401 -371 -394 0
-1470 -402 580 0
-1470 -402 -463 0
-1470 -402 -487 0
-1470 -402 -511 0
-1470 -402 -371 -395 0
-1470 -403 0
-1471 408 0
-1471 557 0
-1471 -385 0
-1471 -386 0
-1471 -387 0
-1471 -400 578 0
-1471 -400 -465 0
-1471 -400 -489 0
-1471 -400 -513 0
-1471 -400 -372 -393 0
-1471 -401 579 0
-1471 -401 -466 0
-1471 -401 -490 0
-1471 -401 -514 0
-1471 -401 -372 -394 0
-1471 -402 580 0
-1471 -402 -467 0
-1471 -402 -491 0
-1471 -402 -515 0
-1471 -402 -372 -395 0
-1471 -403 0
-1472 408 0
-1472 558 0
-1472 -383 0
-1472 -386 0
-1472 -387 0
-1472 -400 578 0
-1472 -400 -469 0
-1472 -400 -493 0
-1472 -400 -517 0
-1472 -400 -373 -393 0
-1472 -401 579 0
-1472 -401 -470 0
-1472 -401 -494 0
-1472 -401 -518 0
-1472 -401 -373 -394 0
-1472 -402 580 0
-1472 -402 -471 0
-1472 -402 -495 0
-1472 -402 -519 0
-1472 -402 -373 -395 0
-1472 -403 0
-1473 408 0
-1473 559 0
-1473 -383 0
-1473 -384 0
-1473 -387 0
-1473 -400 578 0
-1473 -400 -473 0
-1473 -400 -497 0
-1473 -400 -521 0
-1473 -400 -374 -393 0
-1473 -401 579 0
-1473 -401 -474 0
-1473 -401 -498 0
-1473 -401 -522 0
-1473 -401 -374 -394 0
-1473 -402 580 0
-1473 -402 -475 0
-1473 -402 -499 0
-1473 -402 -523 0
-1473 -402 -374 -395 0
-1473 -403 0
-1474 408 0
-1474 560 0
-1474 -383 0
-1474 -384 0
-1474 -385 0
-1474 -400 578 0
-1474 -400 -477 0
-1474 -400 -501 0
-1474 -400 -525 0
-1474 -400 -375 -393 0
-1474 -401 579 0
-1474 -401 -478 0
-1474 -401 -502 0
-1474 -401 -526 0
-1474 -401 -375 -394 0
-1474 -402 580 0
-1474 -402 -479 0
-1474 -402 -503 0
-1474 -402 -527 0
-1474 -402 -375 -395 0
-1474 -403 0
-1475 408 0
-1475 561 0
-1475 -383 0
-1475 -384 0
-1475 -385 0
-1475 -386 0
-1475 -400 578 0
-1475 -400 -481 0
-1475 -400 -505 0
-1475 -400 -529 0
-1475 -400 -376 -393 0
-1475 -401 579 0
-1475 -401 -482 0
-1475 -401 -506 0
-1475 -401 -530 0
-1475 -401 -376 -394 0
-1475 -402 580 0
-1475 -402 -483 0
-1475 -402 -507 0
-1475 -402 -531 0
-1475 -402 -376 -395 0
-1475 -403 0
-1476 408 0
-1476 556 0
-1476 -389 0
-1476 -390 0
-1476 -391 0
-1476 -404 578 0
-1476 -404 -461 0
-1476 -404 -485 0
-1476 -404 -509 0
-1476 -404 -371 -393 0
-1476 -405 579 0
-1476 -405 -462 0
-1476 -405 -486 0
-1476 -405 -510 0
-1476 -405 -371 -394 0
-1476 -406 580 0
-1476 -406 -463 0
-1476 -406 -487 0
-1476 -406 -511 0
-1476 -406 -371 -395 0
-1476 -407 0
-1477 408 0
-1477 557 0
-1477 -390 0
-1477 -391 0
-1477 -404 578 0
-1477 -404 -465 0
-1477 -404 -489 0
-1477 -404 -513 0
-1477 -404 -372 -393 0
-1477 -405 579 0
-1477 -405 -466 0
-1477 -405 -490 0
-1477 -405 -514 0
-1477 -405 -372 -394 0
-1477 -406 580 0
-1477 -406 -467 0
-1477 -406 -491 0
-1477 -406 -515 0
-1477 -406 -372 -395 0
-1477 -407 0
-1478 408 0
-1478 558 0
-1478 -391 0
-1478 -404 578 0
-1478 -404 -469 0
-1478 -404 -493 0
-1478 -404 -517 0
-1478 -404 -373 -393 0
-1478 -405 579 0
-1478 -405 -470 0
-1478 -405 -494 0
-1478 -405 -518 0
-1478 -405 -373 -394 0
-1478 -406 580 0
-1478 -406 -471 0
-1478 -406 -495 0
-1478 -406 -519 0
-1478 -406 -373 -395 0
-1478 -407 0
-1479 408 0
-1479 559 0
-1479 -388 0
-1479 -404 578 0
-1479 -404 -473 0
-1479 -404 -497 0
-1479 -404 -521 0
-1479 -404 -374 -393 0
-1479 -405 579 0
-1479 -405 -474 0
-1479 -405 -498 0
-1479 -405 -522 0
-1479 -405 -374 -394 0
-1479 -406 580 0
-1479 -406 -475 0
-1479 -406 -499 0
-1479 -406 -523 0
-1479 -406 -374 -395 0
-1479 -407 0
-1480 408 0
-1480 560 0
-1480 -388 0
-1480 -389 0
-1480 -404 578 0
-1480 -404 -477 0
-1480 -404 -501 0
-1480 -404 -525 0
-1480 -404 -375 -393 0
-1480 -405 579 0
-1480 -405 -478 0
-1480 -405 -502 0
-1480 -405 -526 0
-1480 -405 -375 -394 0
-1480 -406 580 0
-1480 -406 -479 0
-1480 -406 -503 0
-1480 -406 -527 0
-1480 -406 -375 -395 0
-1480 -407 0
-1481 408 0
-1481 561 0
-1481 -388 0
-1481 -389 0
-1481 -390 0
-1481 -404 578 0
-1481 -404 -481 0
-1481 -404 -505 0
-1481 -404 -529 0
-1481 -404 -376 -393 0
-1481 -405 579 0
-1481 -405 -482 0
-1481 -405 -506 0
-1481 -405 -530 0
-1481 -405 -376 -394 0
-1481 -406 580 0
-1481 -406 -483 0
-1481 -406 -507 0
-1481 -406 -531 0
-1481 -406 -376 -395 0
-1481 -407 0
-1482 408 0
-1482 556 0
-1482 577 0
-1482 -460 0
-1482 -484 0
-1482 -508 0
-1482 -371 -392 0
-1483 408 0
-1483 557 0
-1483 577 0
-1483 -464 0
-1483 -488 0
-1483 -512 0
-1483 -372 -392 0
-1484 408 0
-1484 558 0
-1484 577 0
-1484 -468 0
-1484 -492 0
-1484 -516 0
-1484 -373 -392 0
-1485 408 0
-1485 559 0
-1485 577 0
-1485 -472 0
-1485 -496 0
-1485 -520 0
-1485 -374 -392 0
-1486 408 0
-1486 560 0
-1486 577 0
-1486 -476 0
-1486 -500 0
-1486 -524 0
-1486 -375 -392 0
-1487 408 0
-1487 561 0
-1487 577 0
-1487 -480 0
-1487 -504 0
-1487 -528 0
-1487 -376 -392 0
-1488 409 0
-1488 562 0
-1488 -372 0
-1488 -373 0
-1488 -374 0
-1488 -375 0
-1488 -376 0
-1488 -392 582 0
-1488 -392 -437 0
-1488 -392 -485 0
-1488 -392 -509 0
-1488 -392 -377 -397 0
-1488 -393 583 0
-1488 -393 -438 0
-1488 -393 -486 0
-1488 -393 -510 0
-1488 -393 -377 -398 0
-1488 -394 584 0
-1488 -394 -439 0
-1488 -394 -487 0
-1488 -394 -511 0
-1488 -394 -377 -399 0
-1488 -395 0
-1489 409 0
-1489 563 0
-1489 -371 0
-1489 -373 0
-1489 -374 0
-1489 -375 0
-1489 -376 0
-1489 -392 582 0
-1489 -392 -441 0
-1489 -392 -489 0
-1489 -392 -513 0
-1489 -392 -378 -397 0
-1489 -393 583 0
-1489 -393 -442 0
-1489 -393 -490 0
-1489 -393 -514 0
-1489 -393 -378 -398 0
-1489 -394 584 0
-1489 -394 -443 0
-1489 -394 -491 0
-1489 -394 -515 0
-1489 -394 -378 -399 0
-1489 -395 0
-1490 409 0
-1490 564 0
-1490 -371 0
-1490 -372 0
-1490 -374 0
-1490 -375 0
-1490 -376 0
-1490 -392 582 0
-1490 -392 -445 0
-1490 -392 -493 0
-1490 -392 -517 0
-1490 -392 -379 -397 0
-1490 -393 583 0
-1490 -393 -446 0
-1490 -393 -494 0
-1490 -393 -518 0
-1490 -393 -379 -398 0
-1490 -394 584 0
-1490 -394 -447 0
-1490 -394 -495 0
-1490 -394 -519 0
-1490 -394 -379 -399 0
-1490 -395 0
-1491 409 0
-1491 565 0
-1491 -371 0
-1491 -372 0
-1491 -373 0
-1491 -375 0
-1491 -376 0
-1491 -392 582 0
-1491 -392 -449 0
-1491 -392 -497 0
-1491 -392 -521 0
-1491 -392 -380 -397 0
-1491 -393 583 0
-1491 -393 -450 0
-1491 -393 -498 0
-1491 -393 -522 0
-1491 -393 -380 -398 0
-1491 -394 584 0
-1491 -394 -451 0
-1491 -394 -499 0
-1491 -394 -523 0
-1491 -394 -380 -399 0
-1491 -395 0
-1492 409 0
-1492 566 0
-1492 -371 0
-1492 -372 0
-1492 -373 0
-1492 -374 0
-1492 -376 0
-1492 -392 582 0
-1492 -392 -453 0
-1492 -392 -501 0
-1492 -392 -525 0
-1492 -392 -381 -397 0
-1492 -393 583 0
-1492 -393 -454 0
-1492 -393 -502 0
-1492 -393 -526 0
-1492 -393 -381 -398 0
-1492 -394 584 0
-1492 -394 -455 0
-1492 -394 -503 0
-1492 -394 -527 0
-1492 -394 -381 -399 0
-1492 -395 0
-1493 409 0
-1493 567 0
-1493 -371 0
-1493 -372 0
-1493 -373 0
-1493 -374 0
-1493 -375 0
-1493 -392 582 0
-1493 -392 -457 0
-1493 -392 -505 0
-1493 -392 -529 0
-1493 -392 -382 -397 0
-1493 -393 583 0
-1493 -393 -458 0
-1493 -393 -506 0
-1493 -393 -530 0
-1493 -393 -382 -398 0
-1493 -394 584 0
-1493 -394 -459 0
-1493 -394 -507 0
-1493 -394 -531 0
-1493 -394 -382 -399 0
-1493 -395 0
-1494 409 0
-1494 562 0
-1494 -384 0
-1494 -385 0
-1494 -386 0
-1494 -387 0
-1494 -400 582 0
-1494 -400 -437 0
-1494 -400 -485 0
-1494 -400 -509 0
-1494 -400 -377 -397 0
-1494 -401 583 0
-1494 -401 -438 0
-1494 -401 -486 0
-1494 -401 -510 0
-1494 -401 -377 -398 0
-1494 -402 584 0
-1494 -402 -439 0
-1494 -402 -487 0
-1494 -402 -511 0
-1494 -402 -377 -399 0
-1494 -403 0
-1495 409 0
-1495 563 0
-1495 -385 0
-1495 -386 0
-1495 -387 0
-1495 -400 582 0
-1495 -400 -441 0
-1495 -400 -489 0
-1495 -400 -513 0
-1495 -400 -378 -397 0
-1495 -401 583 0
-1495 -401 -442 0
-1495 -401 -490 0
-1495 -401 -514 0
-1495 -401 -378 -398 0
-1495 -402 584 0
-1495 -402 -443 0
-1495 -402 -491 0
-1495 -402 -515 0
-1495 -402 -378 -399 0
-1495 -403 0
-1496 409 0
-1496 564 0
-1496 -383 0
-1496 -386 0
-1496 -387 0
-1496 -400 582 0
-1496 -400 -445 0
-1496 -400 -493 0
-1496 -400 -517 0
-1496 -400 -379 -397 0
-1496 -401 583 0
-1496 -401 -446 0
-1496 -401 -494 0
-1496 -401 -518 0
-1496 -401 -379 -398 0
-1496 -402 584 0
-1496 -402 -447 0
-1496 -402 -495 0
-1496 -402 -519 0
-1496 -402 -379 -399 0
-1496 -403 0
-1497 409 0
-1497 565 0
-1497 -383 0
-1497 -384 0
-1497 -387 0
-1497 -400 582 0
-1497 -400 -449 0
-1497 -400 -497 0
-1497 -400 -521 0
-1497 -400 -380 -397 0
-1497 -401 583 0
-1497 -401 -450 0
-1497 -401 -498 0
-1497 -401 -522 0
-1497 -401 -380 -398 0
-1497 -402 584 0
-1497 -402 -451 0
-1497 -402 -499 0
-1497 -402 -523 0
-1497 -402 -380 -399 0
-1497 -403 0
-1498 409 0
-1498 566 0
-1498 -383 0
-1498 -384 0
-1498 -385 0
-1498 -400 582 0
-1498 -400 -453 0
-1498 -400 -501 0
-1498 -400 -525 0
-1498 -400 -381 -397 0
-1498 -401 583 0
-1498 -401 -454 0
-1498 -401 -502 0
-1498 -401 -526 0
-1498 -401 -381 -398 0
-1498 -402 584 0
-1498 -402 -455 0
-1498 -402 -503 0
-1498 -402 -527 0
-1498 -402 -381 -399 0
-1498 -403 0
-1499 409 0
-1499 567 0
-1499 -383 0
-1499 -384 0
-1499 -385 0
-1499 -386 0
-1499 -400 582 0
-1499 -400 -457 0
-1499 -400 -505 0
-1499 -400 -529 0
-1499 -400 -382 -397 0
-1499 -401 583 0
-1499 -401 -458 0
-1499 -401 -506 0
-1499 -401 -530 0
-1499 -401 -382 -398 0
-1499 -402 584 0
-1499 -402 -459 0
-1499 -402 -507 0
-1499 -402 -531 0
-1499 -402 -382 -399 0
-1499 -403 0
-1500 409 0
-1500 562 0
-1500 -389 0
-1500 -390 0
-1500 -391 0
-1500 -404 582 0
-1500 -404 -437 0
-1500 -404 -485 0
-1500 -404 -509 0
-1500 -404 -377 -397 0
-1500 -405 583 0
-1500 -405 -438 0
-1500 -405 -486 0
-1500 -405 -510 0
-1500 -405 -377 -398 0
-1500 -406 584 0
-1500 -406 -439 0
-1500 -406 -487 0
-1500 -406 -511 0
-1500 -406 -377 -399 0
-1500 -407 0
-1501 409 0
-1501 563 0
-1501 -390 0
-1501 -391 0
-1501 -404 582 0
-1501 -404 -441 0
-1501 -404 -489 0
-1501 -404 -513 0
-1501 -404 -378 -397 0
-1501 -405 583 0
-1501 -405 -442 0
-1501 -405 -490 0
-1501 -405 -514 0
-1501 -405 -378 -398 0
-1501 -406 584 0
-1501 -406 -443 0
-1501 -406 -491 0
-1501 -406 -515 0
-1501 -406 -378 -399 0
-1501 -407 0
-1502 409 0
-1502 564 0
-1502 -391 0
-1502 -404 582 0
-1502 -404 -445 0
-1502 -404 -493 0
-1502 -404 -517 0
-1502 -404 -379 -397 0
-1502 -405 583 0
-1502 -405 -446 0
-1502 -405 -494 0
-1502 -405 -518 0
-1502 -405 -379 -398 0
-1502 -406 584 0
-1502 -406 -447 0
-1502 -406 -495 0
-1502 -406 -519 0
-1502 -406 -379 -399 0
-1502 -407 0
-1503 409 0
-1503 565 0
-1503 -388 0
-1503 -404 582 0
-1503 -404 -449 0
-1503 -404 -497 0
-1503 -404 -521 0
-1503 -404 -380 -397 0
-1503 -405 583 0
-1503 -405 -450 0
-1503 -405 -498 0
-1503 -405 -522 0
-1503 -405 -380 -398 0
-1503 -406 584 0
-1503 -406 -451 0
-1503 -406 -499 0
-1503 -406 -523 0
-1503 -406 -380 -399 0
-1503 -407 0
-1504 409 0
-1504 566 0
-1504 -388 0
-1504 -389 0
-1504 -404 582 0
-1504 -404 -453 0
-1504 -404 -501 0
-1504 -404 -525 0
-1504 -404 -381 -397 0
-1504 -405 583 0
-1504 -405 -454 0
-1504 -405 -502 0
-1504 -405 -526 0
-1504 -405 -381 -398 0
-1504 -406 584 0
-1504 -406 -455 0
-1504 -406 -503 0
-1504 -406 -527 0
-1504 -406 -381 -399 0
-1504 -407 0
-1505 409 0
-1505 567 0
-1505 -388 0
-1505 -389 0
-1505 -390 0
-1505 -404 582 0
-1505 -404 -457 0
-1505 -404 -505 0
-1505 -404 -529 0
-1505 -404 -382 -397 0
-1505 -405 583 0
-1505 -405 -458 0
-1505 -405 -506 0
-1505 -405 -530 0
-1505 -405 -382 -398 0
-1505 -406 584 0
-1505 -406 -459 0
-1505 -406 -507 0
-1505 -406 -531 0
-1505 -406 -382 -399 0
-1505 -407 0
-1506 409 0
-1506 562 0
-1506 581 0
-1506 -436 0
-1506 -484 0
-1506 -508 0
-1506 -377 -396 0
-1507 409 0
-1507 563 0
-1507 581 0
-1507 -440 0
-1507 -488 0
-1507 -512 0
-1507 -378 -396 0
-1508 409 0
-1508 564 0
-1508 581 0
-1508 -444 0
-1508 -492 0
-1508 -516 0
-1508 -379 -396 0
-1509 409 0
-1509 565 0
-1509 581 0
-1509 -448 0
-1509 -496 0
-1509 -520 0
-1509 -380 -396 0
-1510 409 0
-1510 566 0
-1510 581 0
-1510 -452 0
-1510 -500 0
-1510 -524 0
-1510 -381 -396 0
-1511 409 0
-1511 567 0
-1511 581 0
-1511 -456 0
-1511 -504 0
-1511 -528 0
-1511 -382 -396 0
-1512 410 0
-1512 568 0
-1512 -373 0
-1512 -374 0
-1512 -375 0
-1512 -376 0
-1512 -392 586 0
-1512 -392 -437 0
-1512 -392 -441 0
-1512 -392 -461 0
-1512 -392 -465 0
-1512 -392 -509 0
-1512 -392 -513 0
-1512 -392 -383 -401 0
-1512 -393 587 0
-1512 -393 -438 0
-1512 -393 -442 0
-1512 -393 -462 0
-1512 -393 -466 0
-1512 -393 -510 0
-1512 -393 -514 0
-1512 -393 -383 -402 0
-1512 -394 588 0
-1512 -394 -439 0
-1512 -394 -443 0
-1512 -394 -463 0
-1512 -394 -467 0
-1512 -394 -511 0
-1512 -394 -515 0
-1512 -394 -383 -403 0
-1512 -395 0
-1513 410 0
-1513 569 0
-1513 -371 0
-1513 -374 0
-1513 -375 0
-1513 -376 0
-1513 -392 586 0
-1513 -392 -441 0
-1513 -392 -445 0
-1513 -392 -465 0
-1513 -392 -469 0
-1513 -392 -513 0
-1513 -392 -517 0
-1513 -392 -384 -401 0
-1513 -393 587 0
-1513 -393 -442 0
-1513 -393 -446 0
-1513 -393 -466 0
-1513 -393 -470 0
-1513 -393 -514 0
-1513 -393 -518 0
-1513 -393 -384 -402 0
-1513 -394 588 0
-1513 -394 -443 0
-1513 -394 -447 0
-1513 -394 -467 0
-1513 -394 -471 0
-1513 -394 -515 0
-1513 -394 -519 0
-1513 -394 -384 -403 0
-1513 -395 0
-1514 410 0
-1514 570 0
-1514 -371 0
-1514 -372 0
-1514 -375 0
-1514 -376 0
-1514 -392 586 0
-1514 -392 -445 0
-1514 -392 -449 0
-1514 -392 -469 0
-1514 -392 -473 0
-1514 -392 -517 0
-1514 -392 -521 0
-1514 -392 -385 -401 0
-1514 -393 587 0
-1514 -393 -446 0
-1514 -393 -450 0
-1514 -393 -470 0
-1514 -393 -474 0
-1514 -393 -518 0
-1514 -393 -522 0
-1514 -393 -385 -402 0
-1514 -394 588 0
-1514 -394 -447 0
-1514 -394 -451 0
-1514 -394 -471 0
-1514 -394 -475 0
-1514 -394 -519 0
-1514 -394 -523 0
-1514 -394 -385 -403 0
-1514 -395 0
-1515 410 0
-1515 571 0
-1515 -371 0
-1515 -372 0
-1515 -373 0
-1515 -376 0
-1515 -392 586 0
-1515 -392 -449 0
-1515 -392 -453 0
-1515 -392 -473 0
-1515 -392 -477 0
-1515 -392 -521 0
-1515 -392 -525 0
-1515 -392 -386 -401 0
-1515 -393 587 0
-1515 -393 -450 0
-1515 -393 -454 0
-1515 -393 -474 0
-1515 -393 -478 0
-1515 -393 -522 0
-1515 -393 -526 0
-1515 -393 -386 -402 0
-1515 -394 588 0
-1515 -394 -451 0
-1515 -394 -455 0
-1515 -394 -475 0
-1515 -394 -479 0
-1515 -394 -523 0
-1515 -394 -527 0
-1515 -394 -386 -403 0
-1515 -395 0
-1516 410 0
-1516 572 0
-1516 -371 0
-1516 -372 0
-1516 -373 0
-1516 -374 0
-1516 -392 586 0
-1516 -392 -453 0
-1516 -392 -457 0
-1516 -392 -477 0
-1516 -392 -481 0
-1516 -392 -525 0
-1516 -392 -529 0
-1516 -392 -387 -401 0
-1516 -393 587 0
-1516 -393 -454 0
-1516 -393 -458 0
-1516 -393 -478 0
-1516 -393 -482 0
-1516 -393 -526 0
-1516 -393 -530 0
-1516 -393 -387 -402 0
-1516 -394 588 0
-1516 -394 -455 0
-1516 -394 -459 0
-1516 -394 -479 0
-1516 -394 -483 0
-1516 -394 -527 0
-1516 -394 -531 0
-1516 -394 -387 -403 0
-1516 -395 0
-1517 410 0
-1517 568 0
-1517 -379 0
-1517 -380 0
-1517 -381 0
-1517 -382 0
-1517 -396 586 0
-1517 -396 -437 0
-1517 -396 -441 0
-1517 -396 -461 0
-1517 -396 -465 0
-1517 -396 -509 0
-1517 -396 -513 0
-1517 -396 -383 -401 0
-1517 -397 587 0
-1517 -397 -438 0
-1517 -397 -442 0
-1517 -397 -462 0
-1517 -397 -466 0
-1517 -397 -510 0
-1517 -397 -514 0
-1517 -397 -383 -402 0
-1517 -398 588 0
-1517 -398 -439 0
-1517 -398 -443 0
-1517 -398 -463 0
-1517 -398 -467 0
-1517 -398 -511 0
-1517 -398 -515 0
-1517 -398 -383 -403 0
-1517 -399 0
-1518 410 0
-1518 569 0
-1518 -377 0
-1518 -380 0
-1518 -381 0
-1518 -382 0
-1518 -396 586 0
-1518 -396 -441 0
-1518 -396 -445 0
-1518 -396 -465 0
-1518 -396 -469 0
-1518 -396 -513 0
-1518 -396 -517 0
-1518 -396 -384 -401 0
-1518 -397 587 0
-1518 -397 -442 0
-1518 -397 -446 0
-1518 -397 -466 0
-1518 -397 -470 0
-1518 -397 -514 0
-1518 -397 -518 0
-1518 -397 -384 -402 0
-1518 -398 588 0
-1518 -398 -443 0
-1518 -398 -447 0
-1518 -398 -467 0
-1518 -398 -471 0
-1518 -398 -515 0
-1518 -398 -519 0
-1518 -398 -384 -403 0
-1518 -399 0
-1519 410 0
-1519 570 0
-1519 -377 0
-1519 -378 0
-1519 -381 0
-1519 -382 0
-1519 -396 586 0
-1519 -396 -445 0
-1519 -396 -449 0
-1519 -396 -469 0
-1519 -396 -473 0
-1519 -396 -517 0
-1519 -396 -521 0
-1519 -396 -385 -401 0
-1519 -397 587 0
-1519 -397 -446 0
-1519 -397 -450 0
-1519 -397 -470 0
-1519 -397 -474 0
-1519 -397 -518 0
-1519 -397 -522 0
-1519 -397 -385 -402 0
-1519 -398 588 0
-1519 -398 -447 0
-1519 -398 -451 0
-1519 -398 -471 0
-1519 -398 -475 0
-1519 -398 -519 0
-1519 -398 -523 0
-1519 -398 -385 -403 0
-1519 -399 0
-1520 410 0
-1520 571 0
-1520 -377 0
-1520 -378 0
-1520 -379 0
-1520 -382 0
-1520 -396 586 0
-1520 -396 -449 0
-1520 -396 -453 0
-1520 -396 -473 0
-1520 -396 -477 0
-1520 -396 -521 0
-1520 -396 -525 0
-1520 -396 -386 -401 0
-1520 -397 587 0
-1520 -397 -450 0
-1520 -397 -454 0
-1520 -397 -474 0
-1520 -397 -478 0
-1520 -397 -522 0
-1520 -397 -526 0
-1520 -397 -386 -402 0
-1520 -398 588 0
-1520 -398 -451 0
-1520 -398 -455 0
-1520 -398 -475 0
-1520 -398 -479 0
-1520 -398 -523 0
-1520 -398 -527 0
-1520 -398 -386 -403 0
-1520 -399 0
-1521 410 0
-1521 572 0
-1521 -377 0
-1521 -378 0
-1521 -379 0
-1521 -380 0
-1521 -396 586 0
-1521 -396 -453 0
-1521 -396 -457 0
-1521 -396 -477 0
-1521 -396 -481 0
-1521 -396 -525 0
-1521 -396 -529 0
-1521 -396 -387 -401 0
-1521 -397 587 0
-1521 -397 -454 0
-1521 -397 -458 0
-1521 -397 -478 0
-1521 -397 -482 0
-1521 -397 -526 0
-1521 -397 -530 0
-1521 -397 -387 -402 0
-1521 -398 588 0
-1521 -398 -455 0
-1521 -398 -459 0
-1521 -398 -479 0
-1521 -398 -483 0
-1521 -398 -527 0
-1521 -398 -531 0
-1521 -398 -387 -403 0
-1521 -399 0
-1522 410 0
-1522 568 0
-1522 -390 0
-1522 -391 0
-1522 -404 586 0
-1522 -404 -437 0
-1522 -404 -441 0
-1522 -404 -461 0
-1522 -404 -465 0
-1522 -404 -509 0
-1522 -404 -513 0
-1522 -404 -383 -401 0
-1522 -405 587 0
-1522 -405 -438 0
-1522 -405 -442 0
-1522 -405 -462 0
-1522 -405 -466 0
-1522 -405 -510 0
-1522 -405 -514 0
-1522 -405 -383 -402 0
-1522 -406 588 0
-1522 -406 -439 0
-1522 -406 -443 0
-1522 -406 -463 0
-1522 -406 -467 0
-1522 -406 -511 0
-1522 -406 -515 0
-1522 -406 -383 -403 0
-1522 -407 0
-1523 410 0
-1523 569 0
-1523 -391 0
-1523 -404 586 0
-1523 -404 -441 0
-1523 -404 -445 0
-1523 -404 -465 0
-1523 -404 -469 0
-1523 -404 -513 0
-1523 -404 -517 0
-1523 -404 -384 -401 0
-1523 -405 587 0
-1523 -405 -442 0
-1523 -405 -446 0
-1523 -405 -466 0
-1523 -405 -470 0
-1523 -405 -514 0
-1523 -405 -518 0
-1523 -405 -384 -402 0
-1523 -406 588 0
-1523 -406 -443 0
-1523 -406 -447 0
-1523 -406 -467 0
-1523 -406 -471 0
-1523 -406 -515 0
-1523 -406 -519 0
-1523 -406 -384 -403 0
-1523 -407 0
-1524 410 0
-1524 570 0
-1524 -404 586 0
-1524 -404 -445 0
-1524 -404 -449 0
-1524 -404 -469 0
-1524 -404 -473 0
-1524 -404 -517 0
-1524 -404 -521 0
-1524 -404 -385 -401 0
-1524 -405 587 0
-1524 -405 -446 0
-1524 -405 -450 0
-1524 -405 -470 0
-1524 -405 -474 0
-1524 -405 -518 0
-1524 -405 -522 0
-1524 -405 -385 -402 0
-1524 -406 588 0
-1524 -406 -447 0
-1524 -406 -451 0
-1524 -406 -471 0
-1524 -406 -475 0
-1524 -406 -519 0
-1524 -406 -523 0
-1524 -406 -385 -403 0
-1524 -407 0
-1525 410 0
-1525 571 0
-1525 -388 0
-1525 -404 586 0
-1525 -404 -449 0
-1525 -404 -453 0
-1525 -404 -473 0
-1525 -404 -477 0
-1525 -404 -521 0
-1525 -404 -525 0
-1525 -404 -386 -401 0
-1525 -405 587 0
-1525 -405 -450 0
-1525 -405 -454 0
-1525 -405 -474 0
-1525 -405 -478 0
-1525 -405 -522 0
-1525 -405 -526 0
-1525 -405 -386 -402 0
-1525 -406 588 0
-1525 -406 -451 0
-1525 -406 -455 0
-1525 -406 -475 0
-1525 -406 -479 0
-1525 -406 -523 0
-1525 -406 -527 0
-1525 -406 -386 -403 0
-1525 -407 0
-1526 410 0
-1526 572 0
-1526 -388 0
-1526 -389 0
-1526 -404 586 0
-1526 -404 -453 0
-1526 -404 -457 0
-1526 -404 -477 0
-1526 -404 -481 0
-1526 -404 -525 0
-1526 -404 -529 0
-1526 -404 -387 -401 0
-1526 -405 587 0
-1526 -405 -454 0
-1526 -405 -458 0
-1526 -405 -478 0
-1526 -405 -482 0
-1526 -405 -526 0
-1526 -405 -530 0
-1526 -405 -387 -402 0
-1526 -406 588 0
-1526 -406 -455 0
-1526 -406 -459 0
-1526 -406 -479 0
-1526 -406 -483 0
-1526 -406 -527 0
-1526 -406 -531 0
-1526 -406 -387 -403 0
-1526 -407 0
-1527 410 0
-1527 568 0
-1527 585 0
-1527 -436 0
-1527 -440 0
-1527 -460 0
-1527 -464 0
-1527 -508 0
-1527 -512 0
-1527 -383 -400 0
-1528 410 0
-1528 569 0
-1528 585 0
-1528 -440 0
-1528 -444 0
-1528 -464 0
-1528 -468 0
-1528 -512 0
-1528 -516 0
-1528 -384 -400 0
-1529 410 0
-1529 570 0
-1529 585 0
-1529 -444 0
-1529 -448 0
-1529 -468 0
-1529 -472 0
-1529 -516 0
-1529 -520 0
-1529 -385 -400 0
-1530 410 0
-1530 571 0
-1530 585 0
-1530 -448 0
-1530 -452 0
-1530 -472 0
-1530 -476 0
-1530 -520 0
-1530 -524 0
-1530 -386 -400 0
-1531 410 0
-1531 572 0
-1531 585 0
-1531 -452 0
-1531 -456 0
-1531 -476 0
-1531 -480 0
-1531 -524 0
-1531 -528 0
-1531 -387 -400 0
-1532 411 0
-1532 573 0
-1532 -374 0
-1532 -375 0
-1532 -376 0
-1532 -392 590 0
-1532 -392 -437 0
-1532 -392 -441 0
-1532 -392 -445 0
-1532 -392 -461 0
-1532 -392 -465 0
-1532 -392 -469 0
-1532 -392 -485 0
-1532 -392 -489 0
-1532 -392 -493 0
-1532 -392 -388 -405 0
-1532 -393 591 0
-1532 -393 -438 0
-1532 -393 -442 0
-1532 -393 -446 0
-1532 -393 -462 0
-1532 -393 -466 0
-1532 -393 -470 0
-1532 -393 -486 0
-1532 -393 -490 0
-1532 -393 -494 0
-1532 -393 -388 -406 0
-1532 -394 592 0
-1532 -394 -439 0
-1532 -394 -443 0
-1532 -394 -447 0
-1532 -394 -463 0
-1532 -394 -467 0
-1532 -394 -471 0
-1532 -394 -487 0
-1532 -394 -491 0
-1532 -394 -495 0
-1532 -394 -388 -407 0
-1532 -395 0
-1533 411 0
-1533 574 0
-1533 -371 0
-1533 -375 0
-1533 -376 0
-1533 -392 590 0
-1533 -392 -441 0
-1533 -392 -445 0
-1533 -392 -449 0
-1533 -392 -465 0
-1533 -392 -469 0
-1533 -392 -473 0
-1533 -392 -489 0
-1533 -392 -493 0
-1533 -392 -497 0
-1533 -392 -389 -405 0
-1533 -393 591 0
-1533 -393 -442 0
-1533 -393 -446 0
-1533 -393 -450 0
-1533 -393 -466 0
-1533 -393 -470 0
-1533 -393 -474 0
-1533 -393 -490 0
-1533 -393 -494 0
-1533 -393 -498 0
-1533 -393 -389 -406 0
-1533 -394 592 0
-1533 -394 -443 0
-1533 -394 -447 0
-1533 -394 -451 0
-1533 -394 -467 0
-1533 -394 -471 0
-1533 -394 -475 0
-1533 -394 -491 0
-1533 -394 -495 0
-1533 -394 -499 0
-1533 -394 -389 -407 0
-1533 -395 0
-1534 411 0
-1534 575 0
-1534 -371 0
-1534 -372 0
-1534 -376 0
-1534 -392 590 0
-1534 -392 -445 0
-1534 -392 -449 0
-1534 -392 -453 0
-1534 -392 -469 0
-1534 -392 -473 0
-1534 -392 -477 0
-1534 -392 -493 0
-1534 -392 -497 0
-1534 -392 -501 0
-1534 -392 -390 -405 0
-1534 -393 591 0
-1534 -393 -446 0
-1534 -393 -450 0
-1534 -393 -454 0
-1534 -393 -470 0
-1534 -393 -474 0
-1534 -393 -478 0
-1534 -393 -494 0
-1534 -393 -498 0
-1534 -393 -502 0
-1534 -393 -390 -406 0
-1534 -394 592 0
-1534 -394 -447 0
-1534 -394 -451 0
-1534 -394 -455 0
-1534 -394 -471 0
-1534 -394 -475 0
-1534 -394 -479 0
-1534 -394 -495 0
-1534 -394 -499 0
-1534 -394 -503 0
-1534 -394 -390 -407 0
-1534 -395 0
-1535 411 0
-1535 576 0
-1535 -371 0
-1535 -372 0
-1535 -373 0
-1535 -392 590 0
-1535 -392 -449 0
-1535 -392 -453 0
-1535 -392 -457 0
-1535 -392 -473 0
-1535 -392 -477 0
-1535 -392 -481 0
-1535 -392 -497 0
-1535 -392 -501 0
-1535 -392 -505 0
-1535 -392 -391 -405 0
-1535 -393 591 0
-1535 -393 -450 0
-1535 -393 -454 0
-1535 -393 -458 0
-1535 -393 -474 0
-1535 -393 -478 0
-1535 -393 -482 0
-1535 -393 -498 0
-1535 -393 -502 0
-1535 -393 -506 0
-1535 -393 -391 -406 0
-1535 -394 592 0
-1535 -394 -451 0
-1535 -394 -455 0
-1535 -394 -459 0
-1535 -394 -475 0
-1535 -394 -479 0
-1535 -394 -483 0
-1535 -394 -499 0
-1535 -394 -503 0
-1535 -394 -507 0
-1535 -394 -391 -407 0
-1535 -395 0
-1536 411 0
-1536 573 0
-1536 -380 0
-1536 -381 0
-1536 -382 0
-1536 -396 590 0
-1536 -396 -437 0
-1536 -396 -441 0
-1536 -396 -445 0
-1536 -396 -461 0
-1536 -396 -465 0
-1536 -396 -469 0
-1536 -396 -485 0
-1536 -396 -489 0
-1536 -396 -493 0
-1536 -396 -388 -405 0
-1536 -397 591 0
-1536 -397 -438 0
-1536 -397 -442 0
-1536 -397 -446 0
-1536 -397 -462 0
-1536 -397 -466 0
-1536 -397 -470 0
-1536 -397 -486 0
-1536 -397 -490 0
-1536 -397 -494 0
-1536 -397 -388 -406 0
-1536 -398 592 0
-1536 -398 -439 0
-1536 -398 -443 0
-1536 -398 -447 0
-1536 -398 -463 0
-1536 -398 -467 0
-1536 -398 -471 0
-1536 -398 -487 0
-1536 -398 -491 0
-1536 -398 -495 0
-1536 -398 -388 -407 0
-1536 -399 0
-1537 411 0
-1537 574 0
-1537 -377 0
-1537 -381 0
-1537 -382 0
-1537 -396 590 0
-1537 -396 -441 0
-1537 -396 -445 0
-1537 -396 -449 0
-1537 -396 -465 0
-1537 -396 -469 0
-1537 -396 -473 0
-1537 -396 -489 0
-1537 -396 -493 0
-1537 -396 -497 0
-1537 -396 -389 -405 0
-1537 -397 591 0
-1537 -397 -442 0
-1537 -397 -446 0
-1537 -397 -450 0
-1537 -397 -466 0
-1537 -397 -470 0
-1537 -397 -474 0
-1537 -397 -490 0
-1537 -397 -494 0
-1537 -397 -498 0
-1537 -397 -389 -406 0
-1537 -398 592 0
-1537 -398 -443 0
-1537 -398 -447 0
-1537 -398 -451 0
-1537 -398 -467 0
-1537 -398 -471 0
-1537 -398 -475 0
-1537 -398 -491 0
-1537 -398 -495 0
-1537 -398 -499 0
-1537 -398 -389 -407 0
-1537 -399 0
-1538 411 0
-1538 575 0
-1538 -377 0
-1538 -378 0
-1538 -382 0
-1538 -396 590 0
-1538 -396 -445 0
-1538 -396 -449 0
-1538 -396 -453 0
-1538 -396 -469 0
-1538 -396 -473 0
-1538 -396 -477 0
-1538 -396 -493 0
-1538 -396 -497 0
-1538 -396 -501 0
-1538 -396 -390 -405 0
-1538 -397 591 0
-1538 -397 -446 0
-1538 -397 -450 0
-1538 -397 -454 0
-1538 -397 -470 0
-1538 -397 -474 0
-1538 -397 -478 0
-1538 -397 -494 0
-1538 -397 -498 0
-1538 -397 -502 0
-1538 -397 -390 -406 0
-1538 -398 592 0
-1538 -398 -447 0
-1538 -398 -451 0
-1538 -398 -455 0
-1538 -398 -471 0
-1538 -398 -475 0
-1538 -398 -479 0
-1538 -398 -495 0
-1538 -398 -499 0
-1538 -398 -503 0
-1538 -398 -390 -407 0
-1538 -399 0
-1539 411 0
-1539 576 0
-1539 -377 0
-1539 -378 0
-1539 -379 0
-1539 -396 590 0
-1539 -396 -449 0
-1539 -396 -453 0
-1539 -396 -457 0
-1539 -396 -473 0
-1539 -396 -477 0
-1539 -396 -481 0
-1539 -396 -497 0
-1539 -396 -501 0
-1539 -396 -505 0
-1539 -396 -391 -405 0
-1539 -397 591 0
-1539 -397 -450 0
-1539 -397 -454 0
-1539 -397 -458 0
-1539 -397 -474 0
-1539 -397 -478 0
-1539 -397 -482 0
-1539 -397 -498 0
-1539 -397 -502 0
-1539 -397 -506 0
-1539 -397 -391 -406 0
-1539 -398 592 0
-1539 -398 -451 0
-1539 -398 -455 0
-1539 -398 -459 0
-1539 -398 -475 0
-1539 -398 -479 0
-1539 -398 -483 0
-1539 -398 -499 0
-1539 -398 -503 0
-1539 -398 -507 0
-1539 -398 -391 -407 0
-1539 -399 0
-1540 411 0
-1540 573 0
-1540 -386 0
-1540 -387 0
-1540 -400 590 0
-1540 -400 -437 0
-1540 -400 -441 0
-1540 -400 -445 0
-1540 -400 -461 0
-1540 -400 -465 0
-1540 -400 -469 0
-1540 -400 -485 0
-1540 -400 -489 0
-1540 -400 -493 0
-1540 -400 -388 -405 0
-1540 -401 591 0
-1540 -401 -438 0
-1540 -401 -442 0
-1540 -401 -446 0
-1540 -401 -462 0
-1540 -401 -466 0
-1540 -401 -470 0
-1540 -401 -486 0
-1540 -401 -490 0
-1540 -401 -494 0
-1540 -401 -388 -406 0
-1540 -402 592 0
-1540 -402 -439 0
-1540 -402 -443 0
-1540 -402 -447 0
-1540 -402 -463 0
-1540 -402 -467 0
-1540 -402 -471 0
-1540 -402 -487 0
-1540 -402 -491 0
-1540 -402 -495 0
-1540 -402 -388 -407 0
-1540 -403 0
-1541 411 0
-1541 574 0
-1541 -387 0
-1541 -400 590 0
-1541 -400 -441 0
-1541 -400 -445 0
-1541 -400 -449 0
-1541 -400 -465 0
-1541 -400 -469 0
-1541 -400 -473 0
-1541 -400 -489 0
-1541 -400 -493 0
-1541 -400 -497 0
-1541 -400 -389 -405 0
-1541 -401 591 0
-1541 -401 -442 0
-1541 -401 -446 0
-1541 -401 -450 0
-1541 -401 -466 0
-1541 -401 -470 0
-1541 -401 -474 0
-1541 -401 -490 0
-1541 -401 -494 0
-1541 -401 -498 0
-1541 -401 -389 -406 0
-1541 -402 592 0
-1541 -402 -443 0
-1541 -402 -447 0
-1541 -402 -451 0
-1541 -402 -467 0
-1541 -402 -471 0
-1541 -402 -475 0
-1541 -402 -491 0
-1541 -402 -495 0
-1541 -402 -499 0
-1541 -402 -389 -407 0
-1541 -403 0
-1542 411 0
-1542 575 0
-1542 -383 0
-1542 -400 590 0
-1542 -400 -445 0
-1542 -400 -449 0
-1542 -400 -453 0
-1542 -400 -469 0
-1542 -400 -473 0
-1542 -400 -477 0
-1542 -400 -493 0
-1542 -400 -497 0
-1542 -400 -501 0
-1542 -400 -390 -405 0
-1542 -401 591 0
-1542 -401 -446 0
-1542 -401 -450 0
-1542 -401 -454 0
-1542 -401 -470 0
-1542 -401 -474 0
-1542 -401 -478 0
-1542 -401 -494 0
-1542 -401 -498 0
-1542 -401 -502 0
-1542 -401 -390 -406 0
-1542 -402 592 0
-1542 -402 -447 0
-1542 -402 -451 0
-1542 -402 -455 0
-1542 -402 -471 0
-1542 -402 -475 0
-1542 -402 -479 0
-1542 -402 -495 0
-1542 -402 -499 0
-1542 -402 -503 0
-1542 -402 -390 -407 0
-1542 -403 0
-1543 411 0
-1543 576 0
-1543 -383 0
-1543 -384 0
-1543 -400 590 0
-1543 -400 -449 0
-1543 -400 -453 0
-1543 -400 -457 0
-1543 -400 -473 0
-1543 -400 -477 0
-1543 -400 -481 0
-1543 -400 -497 0
-1543 -400 -501 0
-1543 -400 -505 0
-1543 -400 -391 -405 0
-1543 -401 591 0
-1543 -401 -450 0
-1543 -401 -454 0
-1543 -401 -458 0
-1543 -401 -474 0
-1543 -401 -478 0
-1543 -401 -482 0
-1543 -401 -498 0
-1543 -401 -502 0
-1543 -401 -506 0
-1543 -401 -391 -406 0
-1543 -402 592 0
-1543 -402 -451 0
-1543 -402 -455 0
-1543 -402 -459 0
-1543 -402 -475 0
-1543 -402 -479 0
-1543 -402 -483 0
-1543 -402 -499 0
-1543 -402 -503 0
-1543 -402 -507 0
-1543 -402 -391 -407 0
-1543 -403 0
-1544 411 0
-1544 573 0
-1544 589 0
-1544 -436 0
-1544 -440 0
-1544 -444 0
-1544 -460 0
-1544 -464 0
-1544 -468 0
-1544 -484 0
-1544 -488 0
-1544 -492 0
-1544 -388 -404 0
-1545 411 0
-1545 574 0
-1545 589 0
-1545 -440 0
-1545 -444 0
-1545 -448 0
-1545 -464 0
-1545 -468 0
-1545 -472 0
-1545 -488 0
-1545 -492 0
-1545 -496 0
-1545 -389 -404 0
-1546 411 0
-1546 575 0
-1546 589 0
-1546 -444 0
-1546 -448 0
-1546 -452 0
-1546 -468 0
-1546 -472 0
-1546 -476 0
-1546 -492 0
-1546 -496 0
-1546 -500 0
-1546 -390 -404 0
-1547 411 0
-1547 576 0
-1547 589 0
-1547 -448 0
-1547 -452 0
-1547 -456 0
-1547 -472 0
-1547 -476 0
-1547 -480 0
-1547 -496 0
-1547 -500 0
-1547 -504 0
-1547 -391 -404 0
-371 556 1464 1465 1466 1467 1468 1469 1470 1471 1472 1473 1474 1475 1476 1477 1478 1479 1480 1481 1482 1483 1484 1485 1486 1487 0
-372 557 1464 1465 1466 1467 1468 1469 1470 1471 1472 1473 1474 1475 1476 1477 1478 1479 1480 1481 1482 1483 1484 1485 1486 1487 0
-373 558 1464 1465 1466 1467 1468 1469 1470 1471 1472 1473 1474 1475 1476 1477 1478 1479 1480 1481 1482 1483 1484 1485 1486 1487 0
-374 559 1464 1465 1466 1467 1468 1469 1470 1471 1472 1473 1474 1475 1476 1477 1478 1479 1480 1481 1482 1483 1484 1485 1486 1487 0
-375 560 1464 1465 1466 1467 1468 1469 1470 1471 1472 1473 1474 1475 1476 1477 1478 1479 1480 1481 1482 1483 1484 1485 1486 1487 0
-376 561 1464 1465 1466 1467 1468 1469 1470 1471 1472 1473 1474 1475 1476 1477 1478 1479 1480 1481 1482 1483 1484 1485 1486 1487 0
-392 577 1464 1465 1466 1467 1468 1469 1470 1471 1472 1473 1474 1475 1476 1477 1478 1479 1480 1481 1482 1483 1484 1485 1486 1487 0
-393 578 1464 1465 1466 1467 1468 1469 1470 1471 1472 1473 1474 1475 1476 1477 1478 1479 1480 1481 1482 1483 1484 1485 1486 1487 0
-394 579 1464 1465 1466 1467 1468 1469 1470 1471 1472 1473 1474 1475 1476 1477 1478 1479 1480 1481 1482 1483 1484 1485 1486 1487 0
-395 580 1464 1465 1466 1467 1468 1469 1470 1471 1472 1473 1474 1475 1476 1477 1478 1479 1480 1481 1482 1483 1484 1485 1486 1487 0
-377 562 1488 1489 1490 1491 1492 1493 1494 1495 1496 1497 1498 1499 1500 1501 1502 1503 1504 1505 1506 1507 1508 1509 1510 1511 0
-378 563 1488 1489 1490 1491 1492 1493 1494 1495 1496 1497 1498 1499 1500 1501 1502 1503 1504 1505 1506 1507 1508 1509 1510 1511 0
-379 564 1488 1489 1490 1491 1492 1493 1494 1495 1496 1497 1498 1499 1500 1501 1502 1503 1504 1505 1506 1507 1508 1509 1510 1511 0
-380 565 1488 1489 1490 1491 1492 1493 1494 1495 1496 1497 1498 1499 1500 1501 1502 1503 1504 1505 1506 1507 1508 1509 1510 1511 0
-381 566 1488 1489 1490 1491 1492 1493 1494 1495 1496 1497 1498 1499 1500 1501 1502 1503 1504 1505 1506 1507 1508 1509 1510 1511 0
-382 567 1488 1489 1490 1491 1492 1493 1494 1495 1496 1497 1498 1499 1500 1501 1502 1503 1504 1505 1506 1507 1508 1509 1510 1511 0
-396 581 1488 1489 1490 1491 1492 1493 1494 1495 1496 1497 1498 1499 1500 1501 1502 1503 1504 1505 1506 1507 1508 1509 1510 1511 0
-397 582 1488 1489 1490 1491 1492 1493 1494 1495 1496 1497 1498 1499 1500 1501 1502 1503 1504 1505 1506 1507 1508 1509 1510 1511 0
-398 583 1488 1489 1490 1491 1492 1493 1494 1495 1496 1497 1498 1499 1500 1501 1502 1503 1504 1505 1506 1507 1508 1509 1510 1511 0
-399 584 1488 1489 1490 1491 1492 1493 1494 1495 1496 1497 1498 1499 1500 1501 1502 1503 1504 1505 1506 1507 1508 1509 1510 1511 0
-383 568 1512 1513 1514 1515 1516 1517 1518 1519 1520 1521 1522 1523 1524 1525 1526 1527 1528 1529 1530 1531 0
-384 569 1512 1513 1514 1515 1516 1517 1518 1519 1520 1521 1522 1523 1524 1525 1526 1527 1528 1529 1530 1531 0
-385 570 1512 1513 1514 1515 1516 1517 1518 1519 1520 1521 1522 1523 1524 1525 1526 1527 1528 1529 1530 1531 0
-386 571 1512 1513 1514 1515 1516 1517 1518 1519 1520 1521 1522 1523 1524 1525 1526 1527 1528 1529 1530 1531 0
-387 572 1512 1513 1514 1515 1516 1517 1518 1519 1520 1521 1522 1523 1524 1525 1526 1527 1528 1529 1530 1531 0
-400 585 1512 1513 1514 1515 1516 1517 1518 1519 1520 1521 1522 1523 1524 1525 1526 1527 1528 1529 1530 1531 0
-401 586 1512 1513 1514 1515 1516 1517 1518 1519 1520 1521 1522 1523 1524 1525 1526 1527 1528 1529 1530 1531 0
-402 587 1512 1513 1514 1515 1516 1517 1518 1519 1520 1521 1522 1523 1524 1525 1526 1527 1528 1529 1530 1531 0
-403 588 1512 1513 1514 1515 1516 1517 1518 1519 1520 1521 1522 1523 1524 1525 1526 1527 1528 1529 1530 1531 0
-388 573 1532 1533 1534 1535 1536 1537 1538 1539 1540 1541 1542 1543 1544 1545 1546 1547 0
-389 574 1532 1533 1534 1535 1536 1537 1538 1539 1540 1541 1542 1543 1544 1545 1546 1547 0
-390 575 1532 1533 1534 1535 1536 1537 1538 1539 1540 1541 1542 1543 1544 1545 1546 1547 0
-391 576 1532 1533 1534 1535 1536 1537 1538 1539 1540 1541 1542 1543 1544 1545 1546 1547 0
-404 589 1532 1533 1534 1535 1536 1537 1538 1539 1540 1541 1542 1543 1544 1545 1546 1547 0
-405 590 1532 1533 1534 1535 1536 1537 1538 1539 1540 1541 1542 1543 1544 1545 1546 1547 0
-406 591 1532 1533 1534 1535 1536 1537 1538 1539 1540 1541 1542 1543 1544 1545 1546 1547 0
-407 592 1532 1533 1534 1535 1536 1537 1538 1539 1540 1541 1542 1543 1544 1545 1546 1547 0
-1548 -1549 0
-1548 -1550 0
-1548 -1551 0
-1548 -1552 0
-1548 -1553 0
-1548 -1554 0
-1548 -1555 0
-1548 -1556 0
-1548 -1557 0
-1548 -1558 0
-1548 -1559 0
-1548 -1560 0
-1548 -1561 0
-1548 -1562 0
-1548 -1563 0
-1548 -1564 0
-1548 -1565 0
-1548 -1566 0
-1548 -1567 0
-1548 -1568 0
-1548 -1569 0
-1548 -1570 0
-1548 -1571 0
-1548 -1572 0
-1548 -1573 0
-1548 -1574 0
-1548 -1575 0
-1548 -1576 0
-1548 -1577 0
-1548 -1578 0
-1548 -1579 0
-1548 -1580 0
-1548 -1581 0
-1548 -1582 0
-1548 -1583 0
-1548 -1584 0
-1548 -1585 0
-1548 -1586 0
-1548 -1587 0
-1548 -1588 0
-1548 -1589 0
-1548 -1590 0
-1548 -1591 0
-1548 -1592 0
-1548 -1593 0
-1548 -1594 0
-1548 -1595 0
-1548 -1596 0
-1548 -1597 0
-1548 -1598 0
-1548 -1599 0
-1548 -1600 0
-1548 -1601 0
-1548 -1602 0
-1548 -1603 0
-1548 -1604 0
-1548 -1605 0
-1548 -1606 0
-1548 -1607 0
-1548 -1608 0
-1548 -1609 0
-1548 -1610 0
-1548 -1611 0
-1548 -1612 0
-1548 -1613 0
-1548 -1614 0
-1548 -1615 0
-1548 -1616 0
-1548 -1617 0
-1548 -1618 0
-1548 -1619 0
-1548 -1620 0
-1548 -1621 0
-1548 -1622 0
-1548 -1623 0
-1548 -1624 0
-1548 -1625 0
-1548 -1626 0
-1548 -1627 0
-1548 -1628 0
-1548 -1629 0
-1548 -1630 0
-1548 -1631 0
-1549 -1550 0
-1549 -1551 0
-1549 -1552 0
-1549 -1553 0
-1549 -1554 0
-1549 -1555 0
-1549 -1556 0
-1549 -1557 0
-1549 -1558 0
-1549 -1559 0
-1549 -1560 0
-1549 -1561 0
-1549 -1562 0
-1549 -1563 0
-1549 -1564 0
-1549 -1565 0
-1549 -1566 0
-1549 -1567 0
-1549 -1568 0
-1549 -1569 0
-1549 -1570 0
-1549 -1571 0
-1549 -1572 0
-1549 -1573 0
-1549 -1574 0
-1549 -1575 0
-1549 -1576 0
-1549 -1577 0
-1549 -1578 0
-1549 -1579 0
-1549 -1580 0
-1549 -1581 0
-1549 -1582 0
-1549 -1583 0
-1549 -1584 0
-1549 -1585 0
-1549 -1586 0
-1549 -1587 0
-1549 -1588 0
-1549 -1589 0
-1549 -1590 0
-1549 -1591 0
-1549 -1592 0
-1549 -1593 0
-1549 -1594 0
-1549 -1595 0
-1549 -1596 0
-1549 -1597 0
-1549 -1598 0
-1549 -1599 0
-1549 -1600 0
-1549 -1601 0
-1549 -1602 0
-1549 -1603 0
-1549 -1604 0
-1549 -1605 0
-1549 -1606 0
-1549 -1607 0
-1549 -1608 0
-1549 -1609 0
-1549 -1610 0
-1549 -1611 0
-1549 -1612 0
-1549 -1613 0
-1549 -1614 0
-1549 -1615 0
-1549 -1616 0
-1549 -1617 0
-1549 -1618 0
-1549 -1619 0
-1549 -1620 0
-1549 -1621 0
-1549 -1622 0
-1549 -1623 0
-1549 -1624 0
-1549 -1625 0
-1549 -1626 0
-1549 -1627 0
-1549 -1628 0
-1549 -1629 0
-1549 -1630 0
-1549 -1631 0
-1550 -1551 0
-1550 -1552 0
-1550 -1553 0
-1550 -1554 0
-1550 -1555 0
-1550 -1556 0
-1550 -1557 0
-1550 -1558 0
-1550 -1559 0
-1550 -1560 0
-1550 -1561 0
-1550 -1562 0
-1550 -1563 0
-1550 -1564 0
-1550 -1565 0
-1550 -1566 0
-1550 -1567 0
-1550 -1568 0
-1550 -1569 0
-1550 -1570 0
-1550 -1571 0
-1550 -1572 0
-1550 -1573 0
-1550 -1574 0
-1550 -1575 0
-1550 -1576 0
-1550 -1577 0
-1550 -1578 0
-1550 -1579 0
-1550 -1580 0
-1550 -1581 0
-1550 -1582 0
-1550 -1583 0
-1550 -1584 0
-1550 -1585 0
-1550 -1586 0
-1550 -1587 0
-1550 -1588 0
-1550 -1589 0
-1550 -1590 0
-1550 -1591 0
-1550 -1592 0
-1550 -1593 0
-1550 -1594 0
-1550 -1595 0
-1550 -1596 0
-1550 -1597 0
-1550 -1598 0
-1550 -1599 0
-1550 -1600 0
-1550 -1601 0
-1550 -1602 0
-1550 -1603 0
-1550 -1604 0
-1550 -1605 0
-1550 -1606 0
-1550 -1607 0
-1550 -1608 0
-1550 -1609 0
-1550 -1610 0
-1550 -1611 0
-1550 -1612 0
-1550 -1613 0
-1550 -1614 0
-1550 -1615 0
-1550 -1616 0
-1550 -1617 0
-1550 -1618 0
-1550 -1619 0
-1550 -1620 0
-1550 -1621 0
-1550 -1622 0
-1550 -1623 0
-1550 -1624 0
-1550 -1625 0
-1550 -1626 0
-1550 -1627 0
-1550 -1628 0
-1550 -1629 0
-1550 -1630 0
-1550 -1631 0
-1551 -1552 0
-1551 -1553 0
-1551 -1554 0
-1551 -1555 0
-1551 -1556 0
-1551 -1557 0
-1551 -1558 0
-1551 -1559 0
-1551 -1560 0
-1551 -1561 0
-1551 -1562 0
-1551 -1563 0
-1551 -1564 0
-1551 -1565 0
-1551 -1566 0
-1551 -1567 0
-1551 -1568 0
-1551 -1569 0
-1551 -1570 0
-1551 -1571 0
-1551 -1572 0
-1551 -1573 0
-1551 -1574 0
-1551 -1575 0
-1551 -1576 0
-1551 -1577 0
-1551 -1578 0
-1551 -1579 0
-1551 -1580 0
-1551 -1581 0
-1551 -1582 0
-1551 -1583 0
-1551 -1584 0
-1551 -1585 0
-1551 -1586 0
-1551 -1587 0
-1551 -1588 0
-1551 -1589 0
-1551 -1590 0
-1551 -1591 0
-1551 -1592 0
-1551 -1593 0
-1551 -1594 0
-1551 -1595 0
-1551 -1596 0
-1551 -1597 0
-1551 -1598 0
-1551 -1599 0
-1551 -1600 0
-1551 -1601 0
-1551 -1602 0
-1551 -1603 0
-1551 -1604 0
-1551 -1605 0
-1551 -1606 0
-1551 -1607 0
-1551 -1608 0
-1551 -1609 0
-1551 -1610 0
-1551 -1611 0
-1551 -1612 0
-1551 -1613 0
-1551 -1614 0
-1551 -1615 0
-1551 -1616 0
-1551 -1617 0
-1551 -1618 0
-1551 -1619 0
-1551 -1620 0
-1551 -1621 0
-1551 -1622 0
-1551 -1623 0
-1551 -1624 0
-1551 -1625 0
-1551 -1626 0
-1551 -1627 0
-1551 -1628 0
-1551 -1629 0
-1551 -1630 0
-1551 -1631 0
-1552 -1553 0
-1552 -1554 0
-1552 -1555 0
-1552 -1556 0
-1552 -1557 0
-1552 -1558 0
-1552 -1559 0
-1552 -1560 0
-1552 -1561 0
-1552 -1562 0
-1552 -1563 0
-1552 -1564 0
-1552 -1565 0
-1552 -1566 0
-1552 -1567 0
-1552 -1568 0
-1552 -1569 0
-1552 -1570 0
-1552 -1571 0
-1552 -1572 0
-1552 -1573 0
-1552 -1574 0
-1552 -1575 0
-1552 -1576 0
-1552 -1577 0
-1552 -1578 0
-1552 -1579 0
-1552 -1580 0
-1552 -1581 0
-1552 -1582 0
-1552 -1583 0
-1552 -1584 0
-1552 -1585 0
-1552 -1586 0
-1552 -1587 0
-1552 -1588 0
-1552 -1589 0
-1552 -1590 0
-1552 -1591 0
-1552 -1592 0
-1552 -1593 0
-1552 -1594 0
-1552 -1595 0
-1552 -1596 0
-1552 -1597 0
-1552 -1598 0
-1552 -1599 0
-1552 -1600 0
-1552 -1601 0
-1552 -1602 0
-1552 -1603 0
-1552 -1604 0
-1552 -1605 0
-1552 -1606 0
-1552 -1607 0
-1552 -1608 0
-1552 -1609 0
-1552 -1610 0
-1552 -1611 0
-1552 -1612 0
-1552 -1613 0
-1552 -1614 0
-1552 -1615 0
-1552 -1616 0
-1552 -1617 0
-1552 -1618 0
-1552 -1619 0
-1552 -1620 0
-1552 -1621 0
-1552 -1622 0
-1552 -1623 0
-1552 -1624 0
-1552 -1625 0
-1552 -1626 0
-1552 -1627 0
-1552 -1628 0
-1552 -1629 0
-1552 -1630 0
-1552 -1631 0
-1553 -1554 0
-1553 -1555 0
-1553 -1556 0
-1553 -1557 0
-1553 -1558 0
-1553 -1559 0
-1553 -1560 0
-1553 -1561 0
-1553 -1562 0
-1553 -1563 0
-1553 -1564 0
-1553 -1565 0
-1553 -1566 0
-1553 -1567 0
-1553 -1568 0
-1553 -1569 0
-1553 -1570 0
-1553 -1571 0
-1553 -1572 0
-1553 -1573 0
-1553 -1574 0
-1553 -1575 0
-1553 -1576 0
-1553 -1577 0
-1553 -1578 0
-1553 -1579 0
-1553 -1580 0
-1553 -1581 0
-1553 -1582 0
-1553 -1583 0
-1553 -1584 0
-1553 -1585 0
-1553 -1586 0
-1553 -1587 0
-1553 -1588 0
-1553 -1589 0
-1553 -1590 0
-1553 -1591 0
-1553 -1592 0
-1553 -1593 0
-1553 -1594 0
-1553 -1595 0
-1553 -1596 0
-1553 -1597 0
-1553 -1598 0
-1553 -1599 0
-1553 -1600 0
-1553 -1601 0
-1553 -1602 0
-1553 -1603 0
-1553 -1604 0
-1553 -1605 0
-1553 -1606 0
-1553 -1607 0
-1553 -1608 0
-1553 -1609 0
-1553 -1610 0
-1553 -1611 0
-1553 -1612 0
-1553 -1613 0
-1553 -1614 0
-1553 -1615 0
-1553 -1616 0
-1553 -1617 0
-1553 -1618 0
-1553 -1619 0
-1553 -1620 0
-1553 -1621 0
-1553 -1622 0
-1553 -1623 0
-1553 -1624 0
-1553 -1625 0
-1553 -1626 0
-1553 -1627 0
-1553 -1628 0
-1553 -1629 0
-1553 -1630 0
-1553 -1631 0
-1554 -1555 0
-1554 -1556 0
-1554 -1557 0
-1554 -1558 0
-1554 -1559 0
-1554 -1560 0
-1554 -1561 0
-1554 -1562 0
-1554 -1563 0
-1554 -1564 0
-1554 -1565 0
-1554 -1566 0
-1554 -1567 0
-1554 -1568 0
-1554 -1569 0
-1554 -1570 0
-1554 -1571 0
-1554 -1572 0
-1554 -1573 0
-1554 -1574 0
-1554 -1575 0
-1554 -1576 0
-1554 -1577 0
-1554 -1578 0
-1554 -1579 0
-1554 -1580 0
-1554 -1581 0
-1554 -1582 0
-1554 -1583 0
-1554 -1584 0
-1554 -1585 0
-1554 -1586 0
-1554 -1587 0
-1554 -1588 0
-1554 -1589 0
-1554 -1590 0
-1554 -1591 0
-1554 -1592 0
-1554 -1593 0
-1554 -1594 0
-1554 -1595 0
-1554 -1596 0
-1554 -1597 0
-1554 -1598 0
-1554 -1599 0
-1554 -1600 0
-1554 -1601 0
-1554 -1602 0
-1554 -1603 0
-1554 -1604 0
-1554 -1605 0
-1554 -1606 0
-1554 -1607 0
-1554 -1608 0
-1554 -1609 0
-1554 -1610 0
-1554 -1611 0
-1554 -1612 0
-1554 -1613 0
-1554 -1614 0
-1554 -1615 0
-1554 -1616 0
-1554 -1617 0
-1554 -1618 0
-1554 -1619 0
-1554 -1620 0
-1554 -1621 0
-1554 -1622 0
-1554 -1623 0
-1554 -1624 0
-1554 -1625 0
-1554 -1626 0
-1554 -1627 0
-1554 -1628 0
-1554 -1629 0
-1554 -1630 0
-1554 -1631 0
-1555 -1556 0
-1555 -1557 0
-1555 -1558 0
-1555 -1559 0
-1555 -1560 0
-1555 -1561 0
-1555 -1562 0
-1555 -1563 0
-1555 -1564 0
-1555 -1565 0
-1555 -1566 0
-1555 -1567 0
-1555 -1568 0
-1555 -1569 0
-1555 -1570 0
-1555 -1571 0
-1555 -1572 0
-1555 -1573 0
-1555 -1574 0
-1555 -1575 0
-1555 -1576 0
-1555 -1577 0
-1555 -1578 0
-1555 -1579 0
-1555 -1580 0
-1555 -1581 0
-1555 -1582 0
-1555 -1583 0
-1555 -1584 0
-1555 -1585 0
-1555 -1586 0
-1555 -1587 0
-1555 -1588 0
-1555 -1589 0
-1555 -1590 0
-1555 -1591 0
-1555 -1592 0
-1555 -1593 0
-1555 -1594 0
-1555 -1595 0
-1555 -1596 0
-1555 -1597 0
-1555 -1598 0
-1555 -1599 0
-1555 -1600 0
-1555 -1601 0
-1555 -1602 0
-1555 -1603 0
-1555 -1604 0
-1555 -1605 0
-1555 -1606 0
-1555 -1607 0
-1555 -1608 0
-1555 -1609 0
-1555 -1610 0
-1555 -1611 0
-1555 -1612 0
-1555 -1613 0
-1555 -1614 0
-1555 -1615 0
-1555 -1616 0
-1555 -1617 0
-1555 -1618 0
-1555 -1619 0
-1555 -1620 0
-1555 -1621 0
-1555 -1622 0
-1555 -1623 0
-1555 -1624 0
-1555 -1625 0
-1555 -1626 0
-1555 -1627 0
-1555 -1628 0
-1555 -1629 0
-1555 -1630 0
-1555 -1631 0
-1556 -1557 0
-1556 -1558 0
-1556 -1559 0
-1556 -1560 0
-1556 -1561 0
-1556 -1562 0
-1556 -1563 0
-1556 -1564 0
-1556 -1565 0
-1556 -1566 0
-1556 -1567 0
-1556 -1568 0
-1556 -1569 0
-1556 -1570 0
-1556 -1571 0
-1556 -1572 0
-1556 -1573 0
-1556 -1574 0
-1556 -1575 0
-1556 -1576 0
-1556 -1577 0
-1556 -1578 0
-1556 -1579 0
-1556 -1580 0
-1556 -1581 0
-1556 -1582 0
-1556 -1583 0
-1556 -1584 0
-1556 -1585 0
-1556 -1586 0
-1556 -1587 0
-1556 -1588 0
-1556 -1589 0
-1556 -1590 0
-1556 -1591 0
-1556 -1592 0
-1556 -1593 0
-1556 -1594 0
-1556 -1595 0
-1556 -1596 0
-1556 -1597 0
-1556 -1598 0
-1556 -1599 0
-1556 -1600 0
-1556 -1601 0
-1556 -1602 0
-1556 -1603 0
-1556 -1604 0
-1556 -1605 0
-1556 -1606 0
-1556 -1607 0
-1556 -1608 0
-1556 -1609 0
-1556 -1610 0
-1556 -1611 0
-1556 -1612 0
-1556 -1613 0
-1556 -1614 0
-1556 -1615 0
-1556 -1616 0
-1556 -1617 0
-1556 -1618 0
-1556 -1619 0
-1556 -1620 0
-1556 -1621 0
-1556 -1622 0
-1556 -1623 0
-1556 -1624 0
-1556 -1625 0
-1556 -1626 0
-1556 -1627 0
-1556 -1628 0
-1556 -1629 0
-1556 -1630 0
-1556 -1631 0
-1557 -1558 0
-1557 -1559 0
-1557 -1560 0
-1557 -1561 0
-1557 -1562 0
-1557 -1563 0
-1557 -1564 0
-1557 -1565 0
-1557 -1566 0
-1557 -1567 0
-1557 -1568 0
-1557 -1569 0
-1557 -1570 0
-1557 -1571 0
-1557 -1572 0
-1557 -1573 0
-1557 -1574 0
-1557 -1575 0
-1557 -1576 0
-1557 -1577 0
-1557 -1578 0
-1557 -1579 0
-1557 -1580 0
-1557 -1581 0
-1557 -1582 0
-1557 -1583 0
-1557 -1584 0
-1557 -1585 0
-1557 -1586 0
-1557 -1587 0
-1557 -1588 0
-1557 -1589 0
-1557 -1590 0
-1557 -1591 0
-1557 -1592 0
-1557 -1593 0
-1557 -1594 0
-1557 -1595 0
-1557 -1596 0
-1557 -1597 0
-1557 -1598 0
-1557 -1599 0
-1557 -1600 0
-1557 -1601 0
-1557 -1602 0
-1557 -1603 0
-1557 -1604 0
-1557 -1605 0
-1557 -1606 0
-1557 -1607 0
-1557 -1608 0
-1557 -1609 0
-1557 -1610 0
-1557 -1611 0
-1557 -1612 0
-1557 -1613 0
-1557 -1614 0
-1557 -1615 0
-1557 -1616 0
-1557 -1617 0
-1557 -1618 0
-1557 -1619 0
-1557 -1620 0
-1557 -1621 0
-1557 -1622 0
-1557 -1623 0
-1557 -1624 0
-1557 -1625 0
-1557 -1626 0
-1557 -1627 0
-1557 -1628 0
-1557 -1629 0
-1557 -1630 0
-1557 -1631 0
-1558 -1559 0
-1558 -1560 0
-1558 -1561 0
-1558 -1562 0
-1558 -1563 0
-1558 -1564 0
-1558 -1565 0
-1558 -1566 0
-1558 -1567 0
-1558 -1568 0
-1558 -1569 0
-1558 -1570 0
-1558 -1571 0
-1558 -1572 0
-1558 -1573 0
-1558 -1574 0
-1558 -1575 0
-1558 -1576 0
-1558 -1577 0
-1558 -1578 0
-1558 -1579 0
-1558 -1580 0
-1558 -1581 0
-1558 -1582 0
-1558 -1583 0
-1558 -1584 0
-1558 -1585 0
-1558 -1586 0
-1558 -1587 0
-1558 -1588 0
-1558 -1589 0
-1558 -1590 0
-1558 -1591 0
-1558 -1592 0
-1558 -1593 0
-1558 -1594 0
-1558 -1595 0
-1558 -1596 0
-1558 -1597 0
-1558 -1598 0
-1558 -1599 0
-1558 -1600 0
-1558 -1601 0
-1558 -1602 0
-1558 -1603 0
-1558 -1604 0
-1558 -1605 0
-1558 -1606 0
-1558 -1607 0
-1558 -1608 0
-1558 -1609 0
-1558 -1610 0
-1558 -1611 0
-1558 -1612 0
-1558 -1613 0
-1558 -1614 0
-1558 -1615 0
-1558 -1616 0
-1558 -1617 0
-1558 -1618 0
-1558 -1619 0
-1558 -1620 0
-1558 -1621 0
-1558 -1622 0
-1558 -1623 0
-1558 -1624 0
-1558 -1625 0
-1558 -1626 0
-1558 -1627 0
-1558 -1628 0
-1558 -1629 0
-1558 -1630 0
-1558 -1631 0
-1559 -1560 0
-1559 -1561 0
-1559 -1562 0
-1559 -1563 0
-1559 -1564 0
-1559 -1565 0
-1559 -1566 0
-1559 -1567 0
-1559 -1568 0
-1559 -1569 0
-1559 -1570 0
-1559 -1571 0
-1559 -1572 0
-1559 -1573 0
-1559 -1574 0
-1559 -1575 0
-1559 -1576 0
-1559 -1577 0
-1559 -1578 0
-1559 -1579 0
-1559 -1580 0
-1559 -1581 0
-1559 -1582 0
-1559 -1583 0
-1559 -1584 0
-1559 -1585 0
-1559 -1586 0
-1559 -1587 0
-1559 -1588 0
-1559 -1589 0
-1559 -1590 0
-1559 -1591 0
-1559 -1592 0
-1559 -1593 0
-1559 -1594 0
-1559 -1595 0
-1559 -1596 0
-1559 -1597 0
-1559 -1598 0
-1559 -1599 0
-1559 -1600 0
-1559 -1601 0
-1559 -1602 0
-1559 -1603 0
-1559 -1604 0
-1559 -1605 0
-1559 -1606 0
-1559 -1607 0
-1559 -1608 0
-1559 -1609 0
-1559 -1610 0
-1559 -1611 0
-1559 -1612 0
-1559 -1613 0
-1559 -1614 0
-1559 -1615 0
-1559 -1616 0
-1559 -1617 0
-1559 -1618 0
-1559 -1619 0
-1559 -1620 0
-1559 -1621 0
-1559 -1622 0
-1559 -1623 0
-1559 -1624 0
-1559 -1625 0
-1559 -1626 0
-1559 -1627 0
-1559 -1628 0
-1559 -1629 0
-1559 -1630 0
-1559 -1631 0
-1560 -1561 0
-1560 -1562 0
-1560 -1563 0
-1560 -1564 0
-1560 -1565 0
-1560 -1566 0
-1560 -1567 0
-1560 -1568 0
-1560 -1569 0
-1560 -1570 0
-1560 -1571 0
-1560 -1572 0
-1560 -1573 0
-1560 -1574 0
-1560 -1575 0
-1560 -1576 0
-1560 -1577 0
-1560 -1578 0
-1560 -1579 0
-1560 -1580 0
-1560 -1581 0
-1560 -1582 0
-1560 -1583 0
-1560 -1584 0
-1560 -1585 0
-1560 -1586 0
-1560 -1587 0
-1560 -1588 0
-1560 -1589 0
-1560 -1590 0
-1560 -1591 0
-1560 -1592 0
-1560 -1593 0
-1560 -1594 0
-1560 -1595 0
-1560 -1596 0
-1560 -1597 0
-1560 -1598 0
-1560 -1599 0
-1560 -1600 0
-1560 -1601 0
-1560 -1602 0
-1560 -1603 0
-1560 -1604 0
-1560 -1605 0
-1560 -1606 0
-1560 -1607 0
-1560 -1608 0
-1560 -1609 0
-1560 -1610 0
-1560 -1611 0
-1560 -1612 0
-1560 -1613 0
-1560 -1614 0
-1560 -1615 0
-1560 -1616 0
-1560 -1617 0
-1560 -1618 0
-1560 -1619 0
-1560 -1620 0
-1560 -1621 0
-1560 -1622 0
-1560 -1623 0
-1560 -1624 0
-1560 -1625 0
-1560 -1626 0
-1560 -1627 0
-1560 -1628 0
-1560 -1629 0
-1560 -1630 0
-1560 -1631 0
-1561 -1562 0
-1561 -1563 0
-1561 -1564 0
-1561 -1565 0
-1561 -1566 0
-1561 -1567 0
-1561 -1568 0
-1561 -1569 0
-1561 -1570 0
-1561 -1571 0
-1561 -1572 0
-1561 -1573 0
-1561 -1574 0
-1561 -1575 0
-1561 -1576 0
-1561 -1577 0
-1561 -1578 0
-1561 -1579 0
-1561 -1580 0
-1561 -1581 0
-1561 -1582 0
-1561 -1583 0
-1561 -1584 0
-1561 -1585 0
-1561 -1586 0
-1561 -1587 0
-1561 -1588 0
-1561 -1589 0
-1561 -1590 0
-1561 -1591 0
-1561 -1592 0
-1561 -1593 0
-1561 -1594 0
-1561 -1595 0
-1561 -1596 0
-1561 -1597 0
-1561 -1598 0
-1561 -1599 0
-1561 -1600 0
-1561 -1601 0
-1561 -1602 0
-1561 -1603 0
-1561 -1604 0
-1561 -1605 0
-1561 -1606 0
-1561 -1607 0
-1561 -1608 0
-1561 -1609 0
-1561 -1610 0
-1561 -1611 0
-1561 -1612 0
-1561 -1613 0
-1561 -1614 0
-1561 -1615 0
-1561 -1616 0
-1561 -1617 0
-1561 -1618 0
-1561 -1619 0
-1561 -1620 0
-1561 -1621 0
-1561 -1622 0
-1561 -1623 0
-1561 -1624 0
-1561 -1625 0
-1561 -1626 0
-1561 -1627 0
-1561 -1628 0
-1561 -1629 0
-1561 -1630 0
-1561 -1631 0
-1562 -1563 0
-1562 -1564 0
-1562 -1565 0
-1562 -1566 0
-1562 -1567 0
-1562 -1568 0
-1562 -1569 0
-1562 -1570 0
-1562 -1571 0
-1562 -1572 0
-1562 -1573 0
-1562 -1574 0
-1562 -1575 0
-1562 -1576 0
-1562 -1577 0
-1562 -1578 0
-1562 -1579 0
-1562 -1580 0
-1562 -1581 0
-1562 -1582 0
-1562 -1583 0
-1562 -1584 0
-1562 -1585 0
-1562 -1586 0
-1562 -1587 0
-1562 -1588 0
-1562 -1589 0
-1562 -1590 0
-1562 -1591 0
-1562 -1592 0
-1562 -1593 0
-1562 -1594 0
-1562 -1595 0
-1562 -1596 0
-1562 -1597 0
-1562 -1598 0
-1562 -1599 0
-1562 -1600 0
-1562 -1601 0
-1562 -1602 0
-1562 -1603 0
-1562 -1604 0
-1562 -1605 0
-1562 -1606 0
-1562 -1607 0
-1562 -1608 0
-1562 -1609 0
-1562 -1610 0
-1562 -1611 0
-1562 -1612 0
-1562 -1613 0
-1562 -1614 0
-1562 -1615 0
-1562 -1616 0
-1562 -1617 0
-1562 -1618 0
-1562 -1619 0
-1562 -1620 0
-1562 -1621 0
-1562 -1622 0
-1562 -1623 0
-1562 -1624 0
-1562 -1625 0
-1562 -1626 0
-1562 -1627 0
-1562 -1628 0
-1562 -1629 0
-1562 -1630 0
-1562 -1631 0
-1563 -1564 0
-1563 -1565 0
-1563 -1566 0
-1563 -1567 0
-1563 -1568 0
-1563 -1569 0
-1563 -1570 0
-1563 -1571 0
-1563 -1572 0
-1563 -1573 0
-1563 -1574 0
-1563 -1575 0
-1563 -1576 0
-1563 -1577 0
-1563 -1578 0
-1563 -1579 0
-1563 -1580 0
-1563 -1581 0
-1563 -1582 0
-1563 -1583 0
-1563 -1584 0
-1563 -1585 0
-1563 -1586 0
-1563 -1587 0
-1563 -1588 0
-1563 -1589 0
-1563 -1590 0
-1563 -1591 0
-1563 -1592 0
-1563 -1593 0
-1563 -1594 0
-1563 -1595 0
-1563 -1596 0
-1563 -1597 0
-1563 -1598 0
-1563 -1599 0
-1563 -1600 0
-1563 -1601 0
-1563 -1602 0
-1563 -1603 0
-1563 -1604 0
-1563 -1605 0
-1563 -1606 0
-1563 -1607 0
-1563 -1608 0
-1563 -1609 0
-1563 -1610 0
-1563 -1611 0
-1563 -1612 0
-1563 -1613 0
-1563 -1614 0
-1563 -1615 0
-1563 -1616 0
-1563 -1617 0
-1563 -1618 0
-1563 -1619 0
-1563 -1620 0
-1563 -1621 0
-1563 -1622 0
-1563 -1623 0
-1563 -1624 0
-1563 -1625 0
-1563 -1626 0
-1563 -1627 0
-1563 -1628 0
-1563 -1629 0
-1563 -1630 0
-1563 -1631 0
-1564 -1565 0
-1564 -1566 0
-1564 -1567 0
-1564 -1568 0
-1564 -1569 0
-1564 -1570 0
-1564 -1571 0
-1564 -1572 0
-1564 -1573 0
-1564 -1574 0
-1564 -1575 0
-1564 -1576 0
-1564 -1577 0
-1564 -1578 0
-1564 -1579 0
-1564 -1580 0
-1564 -1581 0
-1564 -1582 0
-1564 -1583 0
-1564 -1584 0
-1564 -1585 0
-1564 -1586 0
-1564 -1587 0
-1564 -1588 0
-1564 -1589 0
-1564 -1590 0
-1564 -1591 0
-1564 -1592 0
-1564 -1593 0
-1564 -1594 0
-1564 -1595 0
-1564 -1596 0
-1564 -1597 0
-1564 -1598 0
-1564 -1599 0
-1564 -1600 0
-1564 -1601 0
-1564 -1602 0
-1564 -1603 0
-1564 -1604 0
-1564 -1605 0
-1564 -1606 0
-1564 -1607 0
-1564 -1608 0
-1564 -1609 0
-1564 -1610 0
-1564 -1611 0
-1564 -1612 0
-1564 -1613 0
-1564 -1614 0
-1564 -1615 0
-1564 -1616 0
-1564 -1617 0
-1564 -1618 0
-1564 -1619 0
-1564 -1620 0
-1564 -1621 0
-1564 -1622 0
-1564 -1623 0
-1564 -1624 0
-1564 -1625 0
-1564 -1626 0
-1564 -1627 0
-1564 -1628 0
-1564 -1629 0
-1564 -1630 0
-1564 -1631 0
-1565 -1566 0
-1565 -1567 0
-1565 -1568 0
-1565 -1569 0
-1565 -1570 0
-1565 -1571 0
-1565 -1572 0
-1565 -1573 0
-1565 -1574 0
-1565 -1575 0
-1565 -1576 0
-1565 -1577 0
-1565 -1578 0
-1565 -1579 0
-1565 -1580 0
-1565 -1581 0
-1565 -1582 0
-1565 -1583 0
-1565 -1584 0
-1565 -1585 0
-1565 -1586 0
-1565 -1587 0
-1565 -1588 0
-1565 -1589 0
-1565 -1590 0
-1565 -1591 0
-1565 -1592 0
-1565 -1593 0
-1565 -1594 0
-1565 -1595 0
-1565 -1596 0
-1565 -1597 0
-1565 -1598 0
-1565 -1599 0
-1565 -1600 0
-1565 -1601 0
-1565 -1602 0
-1565 -1603 0
-1565 -1604 0
-1565 -1605 0
-1565 -1606 0
-1565 -1607 0
-1565 -1608 0
-1565 -1609 0
-1565 -1610 0
-1565 -1611 0
-1565 -1612 0
-1565 -1613 0
-1565 -1614 0
-1565 -1615 0
-1565 -1616 0
-1565 -1617 0
-1565 -1618 0
-1565 -1619 0
-1565 -1620 0
-1565 -1621 0
-1565 -1622 0
-1565 -1623 0
-1565 -1624 0
-1565 -1625 0
-1565 -1626 0
-1565 -1627 0
-1565 -1628 0
-1565 -1629 0
-1565 -1630 0
-1565 -1631 0
-1566 -1567 0
-1566 -1568 0
-1566 -1569 0
-1566 -1570 0
-1566 -1571 0
-1566 -1572 0
-1566 -1573 0
-1566 -1574 0
-1566 -1575 0
-1566 -1576 0
-1566 -1577 0
-1566 -1578 0
-1566 -1579 0
-1566 -1580 0
-1566 -1581 0
-1566 -1582 0
-1566 -1583 0
-1566 -1584 0
-1566 -1585 0
-1566 -1586 0
-1566 -1587 0
-1566 -1588 0
-1566 -1589 0
-1566 -1590 0
-1566 -1591 0
-1566 -1592 0
-1566 -1593 0
-1566 -1594 0
-1566 -1595 0
-1566 -1596 0
-1566 -1597 0
-1566 -1598 0
-1566 -1599 0
-1566 -1600 0
-1566 -1601 0
-1566 -1602 0
-1566 -1603 0
-1566 -1604 0
-1566 -1605 0
-1566 -1606 0
-1566 -1607 0
-1566 -1608 0
-1566 -1609 0
-1566 -1610 0
-1566 -1611 0
-1566 -1612 0
-1566 -1613 0
-1566 -1614 0
-1566 -1615 0
-1566 -1616 0
-1566 -1617 0
-1566 -1618 0
-1566 -1619 0
-1566 -1620 0
-1566 -1621 0
-1566 -1622 0
-1566 -1623 0
-1566 -1624 0
-1566 -1625 0
-1566 -1626 0
-1566 -1627 0
-1566 -1628 0
-1566 -1629 0
-1566 -1630 0
-1566 -1631 0
-1567 -1568 0
-1567 -1569 0
-1567 -1570 0
-1567 -1571 0
-1567 -1572 0
-1567 -1573 0
-1567 -1574 0
-1567 -1575 0
-1567 -1576 0
-1567 -1577 0
-1567 -1578 0
-1567 -1579 0
-1567 -1580 0
-1567 -1581 0
-1567 -1582 0
-1567 -1583 0
-1567 -1584 0
-1567 -1585 0
-1567 -1586 0
-1567 -1587 0
-1567 -1588 0
-1567 -1589 0
-1567 -1590 0
-1567 -1591 0
-1567 -1592 0
-1567 -1593 0
-1567 -1594 0
-1567 -1595 0
-1567 -1596 0
-1567 -1597 0
-1567 -1598 0
-1567 -1599 0
-1567 -1600 0
-1567 -1601 0
-1567 -1602 0
-1567 -1603 0
-1567 -1604 0
-1567 -1605 0
-1567 -1606 0
-1567 -1607 0
-1567 -1608 0
-1567 -1609 0
-1567 -1610 0
-1567 -1611 0
-1567 -1612 0
-1567 -1613 0
-1567 -1614 0
-1567 -1615 0
-1567 -1616 0
-1567 -1617 0
-1567 -1618 0
-1567 -1619 0
-1567 -1620 0
-1567 -1621 0
-1567 -1622 0
-1567 -1623 0
-1567 -1624 0
-1567 -1625 0
-1567 -1626 0
-1567 -1627 0
-1567 -1628 0
-1567 -1629 0
-1567 -1630 0
-1567 -1631 0
-1568 -1569 0
-1568 -1570 0
-1568 -1571 0
-1568 -1572 0
-1568 -1573 0
-1568 -1574 0
-1568 -1575 0
-1568 -1576 0
-1568 -1577 0
-1568 -1578 0
-1568 -1579 0
-1568 -1580 0
-1568 -1581 0
-1568 -1582 0
-1568 -1583 0
-1568 -1584 0
-1568 -1585 0
-1568 -1586 0
-1568 -1587 0
-1568 -1588 0
-1568 -1589 0
-1568 -1590 0
-1568 -1591 0
-1568 -1592 0
-1568 -1593 0
-1568 -1594 0
-1568 -1595 0
-1568 -1596 0
-1568 -1597 0
-1568 -1598 0
-1568 -1599 0
-1568 -1600 0
-1568 -1601 0
-1568 -1602 0
-1568 -1603 0
-1568 -1604 0
-1568 -1605 0
-1568 -1606 0
-1568 -1607 0
-1568 -1608 0
-1568 -1609 0
-1568 -1610 0
-1568 -1611 0
-1568 -1612 0
-1568 -1613 0
-1568 -1614 0
-1568 -1615 0
-1568 -1616 0
-1568 -1617 0
-1568 -1618 0
-1568 -1619 0
-1568 -1620 0
-1568 -1621 0
-1568 -1622 0
-1568 -1623 0
-1568 -1624 0
-1568 -1625 0
-1568 -1626 0
-1568 -1627 0
-1568 -1628 0
-1568 -1629 0
-1568 -1630 0
-1568 -1631 0
-1569 -1570 0
-1569 -1571 0
-1569 -1572 0
-1569 -1573 0
-1569 -1574 0
-1569 -1575 0
-1569 -1576 0
-1569 -1577 0
-1569 -1578 0
-1569 -1579 0
-1569 -1580 0
-1569 -1581 0
-1569 -1582 0
-1569 -1583 0
-1569 -1584 0
-1569 -1585 0
-1569 -1586 0
-1569 -1587 0
-1569 -1588 0
-1569 -1589 0
-1569 -1590 0
-1569 -1591 0
-1569 -1592 0
-1569 -1593 0
-1569 -1594 0
-1569 -1595 0
-1569 -1596 0
-1569 -1597 0
-1569 -1598 0
-1569 -1599 0
-1569 -1600 0
-1569 -1601 0
-1569 -1602 0
-1569 -1603 0
-1569 -1604 0
-1569 -1605 0
-1569 -1606 0
-1569 -1607 0
-1569 -1608 0
-1569 -1609 0
-1569 -1610 0
-1569 -1611 0
-1569 -1612 0
-1569 -1613 0
-1569 -1614 0
-1569 -1615 0
-1569 -1616 0
-1569 -1617 0
-1569 -1618 0
-1569 -1619 0
-1569 -1620 0
-1569 -1621 0
-1569 -1622 0
-1569 -1623 0
-1569 -1624 0
-1569 -1625 0
-1569 -1626 0
-1569 -1627 0
-1569 -1628 0
-1569 -1629 0
-1569 -1630 0
-1569 -1631 0
-1570 -1571 0
-1570 -1572 0
-1570 -1573 0
-1570 -1574 0
-1570 -1575 0
-1570 -1576 0
-1570 -1577 0
-1570 -1578 0
-1570 -1579 0
-1570 -1580 0
-1570 -1581 0
-1570 -1582 0
-1570 -1583 0
-1570 -1584 0
-1570 -1585 0
-1570 -1586 0
-1570 -1587 0
-1570 -1588 0
-1570 -1589 0
-1570 -1590 0
-1570 -1591 0
-1570 -1592 0
-1570 -1593 0
-1570 -1594 0
-1570 -1595 0
-1570 -1596 0
-1570 -1597 0
-1570 -1598 0
-1570 -1599 0
-1570 -1600 0
-1570 -1601 0
-1570 -1602 0
-1570 -1603 0
-1570 -1604 0
-1570 -1605 0
-1570 -1606 0
-1570 -1607 0
-1570 -1608 0
-1570 -1609 0
-1570 -1610 0
-1570 -1611 0
-1570 -1612 0
-1570 -1613 0
-1570 -1614 0
-1570 -1615 0
-1570 -1616 0
-1570 -1617 0
-1570 -1618 0
-1570 -1619 0
-1570 -1620 0
-1570 -1621 0
-1570 -1622 0
-1570 -1623 0
-1570 -1624 0
-1570 -1625 0
-1570 -1626 0
-1570 -1627 0
-1570 -1628 0
-1570 -1629 0
-1570 -1630 0
-1570 -1631 0
-1571 -1572 0
-1571 -1573 0
-1571 -1574 0
-1571 -1575 0
-1571 -1576 0
-1571 -1577 0
-1571 -1578 0
-1571 -1579 0
-1571 -1580 0
-1571 -1581 0
-1571 -1582 0
-1571 -1583 0
-1571 -1584 0
-1571 -1585 0
-1571 -1586 0
-1571 -1587 0
-1571 -1588 0
-1571 -1589 0
-1571 -1590 0
-1571 -1591 0
-1571 -1592 0
-1571 -1593 0
-1571 -1594 0
-1571 -1595 0
-1571 -1596 0
-1571 -1597 0
-1571 -1598 0
-1571 -1599 0
-1571 -1600 0
-1571 -1601 0
-1571 -1602 0
-1571 -1603 0
-1571 -1604 0
-1571 -1605 0
-1571 -1606 0
-1571 -1607 0
-1571 -1608 0
-1571 -1609 0
-1571 -1610 0
-1571 -1611 0
-1571 -1612 0
-1571 -1613 0
-1571 -1614 0
-1571 -1615 0
-1571 -1616 0
-1571 -1617 0
-1571 -1618 0
-1571 -1619 0
-1571 -1620 0
-1571 -1621 0
-1571 -1622 0
-1571 -1623 0
-1571 -1624 0
-1571 -1625 0
-1571 -1626 0
-1571 -1627 0
-1571 -1628 0
-1571 -1629 0
-1571 -1630 0
-1571 -1631 0
-1572 -1573 0
-1572 -1574 0
-1572 -1575 0
-1572 -1576 0
-1572 -1577 0
-1572 -1578 0
-1572 -1579 0
-1572 -1580 0
-1572 -1581 0
-1572 -1582 0
-1572 -1583 0
-1572 -1584 0
-1572 -1585 0
-1572 -1586 0
-1572 -1587 0
-1572 -1588 0
-1572 -1589 0
-1572 -1590 0
-1572 -1591 0
-1572 -1592 0
-1572 -1593 0
-1572 -1594 0
-1572 -1595 0
-1572 -1596 0
-1572 -1597 0
-1572 -1598 0
-1572 -1599 0
-1572 -1600 0
-1572 -1601 0
-1572 -1602 0
-1572 -1603 0
-1572 -1604 0
-1572 -1605 0
-1572 -1606 0
-1572 -1607 0
-1572 -1608 0
-1572 -1609 0
-1572 -1610 0
-1572 -1611 0
-1572 -1612 0
-1572 -1613 0
-1572 -1614 0
-1572 -1615 0
-1572 -1616 0
-1572 -1617 0
-1572 -1618 0
-1572 -1619 0
-1572 -1620 0
-1572 -1621 0
-1572 -1622 0
-1572 -1623 0
-1572 -1624 0
-1572 -1625 0
-1572 -1626 0
-1572 -1627 0
-1572 -1628 0
-1572 -1629 0
-1572 -1630 0
-1572 -1631 0
-1573 -1574 0
-1573 -1575 0
-1573 -1576 0
-1573 -1577 0
-1573 -1578 0
-1573 -1579 0
-1573 -1580 0
-1573 -1581 0
-1573 -1582 0
-1573 -1583 0
-1573 -1584 0
-1573 -1585 0
-1573 -1586 0
-1573 -1587 0
-1573 -1588 0
-1573 -1589 0
-1573 -1590 0
-1573 -1591 0
-1573 -1592 0
-1573 -1593 0
-1573 -1594 0
-1573 -1595 0
-1573 -1596 0
-1573 -1597 0
-1573 -1598 0
-1573 -1599 0
-1573 -1600 0
-1573 -1601 0
-1573 -1602 0
-1573 -1603 0
-1573 -1604 0
-1573 -1605 0
-1573 -1606 0
-1573 -1607 0
-1573 -1608 0
-1573 -1609 0
-1573 -1610 0
-1573 -1611 0
-1573 -1612 0
-1573 -1613 0
-1573 -1614 0
-1573 -1615 0
-1573 -1616 0
-1573 -1617 0
-1573 -1618 0
-1573 -1619 0
-1573 -1620 0
-1573 -1621 0
-1573 -1622 0
-1573 -1623 0
-1573 -1624 0
-1573 -1625 0
-1573 -1626 0
-1573 -1627 0
-1573 -1628 0
-1573 -1629 0
-1573 -1630 0
-1573 -1631 0
-1574 -1575 0
-1574 -1576 0
-1574 -1577 0
-1574 -1578 0
-1574 -1579 0
-1574 -1580 0
-1574 -1581 0
-1574 -1582 0
-1574 -1583 0
-1574 -1584 0
-1574 -1585 0
-1574 -1586 0
-1574 -1587 0
-1574 -1588 0
-1574 -1589 0
-1574 -1590 0
-1574 -1591 0
-1574 -1592 0
-1574 -1593 0
-1574 -1594 0
-1574 -1595 0
-1574 -1596 0
-1574 -1597 0
-1574 -1598 0
-1574 -1599 0
-1574 -1600 0
-1574 -1601 0
-1574 -1602 0
-1574 -1603 0
-1574 -1604 0
-1574 -1605 0
-1574 -1606 0
-1574 -1607 0
-1574 -1608 0
-1574 -1609 0
-1574 -1610 0
-1574 -1611 0
-1574 -1612 0
-1574 -1613 0
-1574 -1614 0
-1574 -1615 0
-1574 -1616 0
-1574 -1617 0
-1574 -1618 0
-1574 -1619 0
-1574 -1620 0
-1574 -1621 0
-1574 -1622 0
-1574 -1623 0
-1574 -1624 0
-1574 -1625 0
-1574 -1626 0
-1574 -1627 0
-1574 -1628 0
-1574 -1629 0
-1574 -1630 0
-1574 -1631 0
-1575 -1576 0
-1575 -1577 0
-1575 -1578 0
-1575 -1579 0
-1575 -1580 0
-1575 -1581 0
-1575 -1582 0
-1575 -1583 0
-1575 -1584 0
-1575 -1585 0
-1575 -1586 0
-1575 -1587 0
-1575 -1588 0
-1575 -1589 0
-1575 -1590 0
-1575 -1591 0
-1575 -1592 0
-1575 -1593 0
-1575 -1594 0
-1575 -1595 0
-1575 -1596 0
-1575 -1597 0
-1575 -1598 0
-1575 -1599 0
-1575 -1600 0
-1575 -1601 0
-1575 -1602 0
-1575 -1603 0
-1575 -1604 0
-1575 -1605 0
-1575 -1606 0
-1575 -1607 0
-1575 -1608 0
-1575 -1609 0
-1575 -1610 0
-1575 -1611 0
-1575 -1612 0
-1575 -1613 0
-1575 -1614 0
-1575 -1615 0
-1575 -1616 0
-1575 -1617 0
-1575 -1618 0
-1575 -1619 0
-1575 -1620 0
-1575 -1621 0
-1575 -1622 0
-1575 -1623 0
-1575 -1624 0
-1575 -1625 0
-1575 -1626 0
-1575 -1627 0
-1575 -1628 0
-1575 -1629 0
-1575 -1630 0
-1575 -1631 0
-1576 -1577 0
-1576 -1578 0
-1576 -1579 0
-1576 -1580 0
-1576 -1581 0
-1576 -1582 0
-1576 -1583 0
-1576 -1584 0
-1576 -1585 0
-1576 -1586 0
-1576 -1587 0
-1576 -1588 0
-1576 -1589 0
-1576 -1590 0
-1576 -1591 0
-1576 -1592 0
-1576 -1593 0
-1576 -1594 0
-1576 -1595 0
-1576 -1596 0
-1576 -1597 0
-1576 -1598 0
-1576 -1599 0
-1576 -1600 0
-1576 -1601 0
-1576 -1602 0
-1576 -1603 0
-1576 -1604 0
-1576 -1605 0
-1576 -1606 0
-1576 -1607 0
-1576 -1608 0
-1576 -1609 0
-1576 -1610 0
-1576 -1611 0
-1576 -1612 0
-1576 -1613 0
-1576 -1614 0
-1576 -1615 0
-1576 -1616 0
-1576 -1617 0
-1576 -1618 0
-1576 -1619 0
-1576 -1620 0
-1576 -1621 0
-1576 -1622 0
-1576 -1623 0
-1576 -1624 0
-1576 -1625 0
-1576 -1626 0
-1576 -1627 0
-1576 -1628 0
-1576 -1629 0
-1576 -1630 0
-1576 -1631 0
-1577 -1578 0
-1577 -1579 0
-1577 -1580 0
-1577 -1581 0
-1577 -1582 0
-1577 -1583 0
-1577 -1584 0
-1577 -1585 0
-1577 -1586 0
-1577 -1587 0
-1577 -1588 0
-1577 -1589 0
-1577 -1590 0
-1577 -1591 0
-1577 -1592 0
-1577 -1593 0
-1577 -1594 0
-1577 -1595 0
-1577 -1596 0
-1577 -1597 0
-1577 -1598 0
-1577 -1599 0
-1577 -1600 0
-1577 -1601 0
-1577 -1602 0
-1577 -1603 0
-1577 -1604 0
-1577 -1605 0
-1577 -1606 0
-1577 -1607 0
-1577 -1608 0
-1577 -1609 0
-1577 -1610 0
-1577 -1611 0
-1577 -1612 0
-1577 -1613 0
-1577 -1614 0
-1577 -1615 0
-1577 -1616 0
-1577 -1617 0
-1577 -1618 0
-1577 -1619 0
-1577 -1620 0
-1577 -1621 0
-1577 -1622 0
-1577 -1623 0
-1577 -1624 0
-1577 -1625 0
-1577 -1626 0
-1577 -1627 0
-1577 -1628 0
-1577 -1629 0
-1577 -1630 0
-1577 -1631 0
-1578 -1579 0
-1578 -1580 0
-1578 -1581 0
-1578 -1582 0
-1578 -1583 0
-1578 -1584 0
-1578 -1585 0
-1578 -1586 0
-1578 -1587 0
-1578 -1588 0
-1578 -1589 0
-1578 -1590 0
-1578 -1591 0
-1578 -1592 0
-1578 -1593 0
-1578 -1594 0
-1578 -1595 0
-1578 -1596 0
-1578 -1597 0
-1578 -1598 0
-1578 -1599 0
-1578 -1600 0
-1578 -1601 0
-1578 -1602 0
-1578 -1603 0
-1578 -1604 0
-1578 -1605 0
-1578 -1606 0
-1578 -1607 0
-1578 -1608 0
-1578 -1609 0
-1578 -1610 0
-1578 -1611 0
-1578 -1612 0
-1578 -1613 0
-1578 -1614 0
-1578 -1615 0
-1578 -1616 0
-1578 -1617 0
-1578 -1618 0
-1578 -1619 0
-1578 -1620 0
-1578 -1621 0
-1578 -1622 0
-1578 -1623 0
-1578 -1624 0
-1578 -1625 0
-1578 -1626 0
-1578 -1627 0
-1578 -1628 0
-1578 -1629 0
-1578 -1630 0
-1578 -1631 0
-1579 -1580 0
-1579 -1581 0
-1579 -1582 0
-1579 -1583 0
-1579 -1584 0
-1579 -1585 0
-1579 -1586 0
-1579 -1587 0
-1579 -1588 0
-1579 -1589 0
-1579 -1590 0
-1579 -1591 0
-1579 -1592 0
-1579 -1593 0
-1579 -1594 0
-1579 -1595 0
-1579 -1596 0
-1579 -1597 0
-1579 -1598 0
-1579 -1599 0
-1579 -1600 0
-1579 -1601 0
-1579 -1602 0
-1579 -1603 0
-1579 -1604 0
-1579 -1605 0
-1579 -1606 0
-1579 -1607 0
-1579 -1608 0
-1579 -1609 0
-1579 -1610 0
-1579 -1611 0
-1579 -1612 0
-1579 -1613 0
-1579 -1614 0
-1579 -1615 0
-1579 -1616 0
-1579 -1617 0
-1579 -1618 0
-1579 -1619 0
-1579 -1620 0
-1579 -1621 0
-1579 -1622 0
-1579 -1623 0
-1579 -1624 0
-1579 -1625 0
-1579 -1626 0
-1579 -1627 0
-1579 -1628 0
-1579 -1629 0
-1579 -1630 0
-1579 -1631 0
-1580 -1581 0
-1580 -1582 0
-1580 -1583 0
-1580 -1584 0
-1580 -1585 0
-1580 -1586 0
-1580 -1587 0
-1580 -1588 0
-1580 -1589 0
-1580 -1590 0
-1580 -1591 0
-1580 -1592 0
-1580 -1593 0
-1580 -1594 0
-1580 -1595 0
-1580 -1596 0
-1580 -1597 0
-1580 -1598 0
-1580 -1599 0
-1580 -1600 0
-1580 -1601 0
-1580 -1602 0
-1580 -1603 0
-1580 -1604 0
-1580 -1605 0
-1580 -1606 0
-1580 -1607 0
-1580 -1608 0
-1580 -1609 0
-1580 -1610 0
-1580 -1611 0
-1580 -1612 0
-1580 -1613 0
-1580 -1614 0
-1580 -1615 0
-1580 -1616 0
-1580 -1617 0
-1580 -1618 0
-1580 -1619 0
-1580 -1620 0
-1580 -1621 0
-1580 -1622 0
-1580 -1623 0
-1580 -1624 0
-1580 -1625 0
-1580 -1626 0
-1580 -1627 0
-1580 -1628 0
-1580 -1629 0
-1580 -1630 0
-1580 -1631 0
-1581 -1582 0
-1581 -1583 0
-1581 -1584 0
-1581 -1585 0
-1581 -1586 0
-1581 -1587 0
-1581 -1588 0
-1581 -1589 0
-1581 -1590 0
-1581 -1591 0
-1581 -1592 0
-1581 -1593 0
-1581 -1594 0
-1581 -1595 0
-1581 -1596 0
-1581 -1597 0
-1581 -1598 0
-1581 -1599 0
-1581 -1600 0
-1581 -1601 0
-1581 -1602 0
-1581 -1603 0
-1581 -1604 0
-1581 -1605 0
-1581 -1606 0
-1581 -1607 0
-1581 -1608 0
-1581 -1609 0
-1581 -1610 0
-1581 -1611 0
-1581 -1612 0
-1581 -1613 0
-1581 -1614 0
-1581 -1615 0
-1581 -1616 0
-1581 -1617 0
-1581 -1618 0
-1581 -1619 0
-1581 -1620 0
-1581 -1621 0
-1581 -1622 0
-1581 -1623 0
-1581 -1624 0
-1581 -1625 0
-1581 -1626 0
-1581 -1627 0
-1581 -1628 0
-1581 -1629 0
-1581 -1630 0
-1581 -1631 0
-1582 -1583 0
-1582 -1584 0
-1582 -1585 0
-1582 -1586 0
-1582 -1587 0
-1582 -1588 0
-1582 -1589 0
-1582 -1590 0
-1582 -1591 0
-1582 -1592 0
-1582 -1593 0
-1582 -1594 0
-1582 -1595 0
-1582 -1596 0
-1582 -1597 0
-1582 -1598 0
-1582 -1599 0
-1582 -1600 0
-1582 -1601 0
-1582 -1602 0
-1582 -1603 0
-1582 -1604 0
-1582 -1605 0
-1582 -1606 0
-1582 -1607 0
-1582 -1608 0
-1582 -1609 0
-1582 -1610 0
-1582 -1611 0
-1582 -1612 0
-1582 -1613 0
-1582 -1614 0
-1582 -1615 0
-1582 -1616 0
-1582 -1617 0
-1582 -1618 0
-1582 -1619 0
-1582 -1620 0
-1582 -1621 0
-1582 -1622 0
-1582 -1623 0
-1582 -1624 0
-1582 -1625 0
-1582 -1626 0
-1582 -1627 0
-1582 -1628 0
-1582 -1629 0
-1582 -1630 0
-1582 -1631 0
-1583 -1584 0
-1583 -1585 0
-1583 -1586 0
-1583 -1587 0
-1583 -1588 0
-1583 -1589 0
-1583 -1590 0
-1583 -1591 0
-1583 -1592 0
-1583 -1593 0
-1583 -1594 0
-1583 -1595 0
-1583 -1596 0
-1583 -1597 0
-1583 -1598 0
-1583 -1599 0
-1583 -1600 0
-1583 -1601 0
-1583 -1602 0
-1583 -1603 0
-1583 -1604 0
-1583 -1605 0
-1583 -1606 0
-1583 -1607 0
-1583 -1608 0
-1583 -1609 0
-1583 -1610 0
-1583 -1611 0
-1583 -1612 0
-1583 -1613 0
-1583 -1614 0
-1583 -1615 0
-1583 -1616 0
-1583 -1617 0
-1583 -1618 0
-1583 -1619 0
-1583 -1620 0
-1583 -1621 0
-1583 -1622 0
-1583 -1623 0
-1583 -1624 0
-1583 -1625 0
-1583 -1626 0
-1583 -1627 0
-1583 -1628 0
-1583 -1629 0
-1583 -1630 0
-1583 -1631 0
-1584 -1585 0
-1584 -1586 0
-1584 -1587 0
-1584 -1588 0
-1584 -1589 0
-1584 -1590 0
-1584 -1591 0
-1584 -1592 0
-1584 -1593 0
-1584 -1594 0
-1584 -1595 0
-1584 -1596 0
-1584 -1597 0
-1584 -1598 0
-1584 -1599 0
-1584 -1600 0
-1584 -1601 0
-1584 -1602 0
-1584 -1603 0
-1584 -1604 0
-1584 -1605 0
-1584 -1606 0
-1584 -1607 0
-1584 -1608 0
-1584 -1609 0
-1584 -1610 0
-1584 -1611 0
-1584 -1612 0
-1584 -1613 0
-1584 -1614 0
-1584 -1615 0
-1584 -1616 0
-1584 -1617 0
-1584 -1618 0
-1584 -1619 0
-1584 -1620 0
-1584 -1621 0
-1584 -1622 0
-1584 -1623 0
-1584 -1624 0
-1584 -1625 0
-1584 -1626 0
-1584 -1627 0
-1584 -1628 0
-1584 -1629 0
-1584 -1630 0
-1584 -1631 0
-1585 -1586 0
-1585 -1587 0
-1585 -1588 0
-1585 -1589 0
-1585 -1590 0
-1585 -1591 0
-1585 -1592 0
-1585 -1593 0
-1585 -1594 0
-1585 -1595 0
-1585 -1596 0
-1585 -1597 0
-1585 -1598 0
-1585 -1599 0
-1585 -1600 0
-1585 -1601 0
-1585 -1602 0
-1585 -1603 0
-1585 -1604 0
-1585 -1605 0
-1585 -1606 0
-1585 -1607 0
-1585 -1608 0
-1585 -1609 0
-1585 -1610 0
-1585 -1611 0
-1585 -1612 0
-1585 -1613 0
-1585 -1614 0
-1585 -1615 0
-1585 -1616 0
-1585 -1617 0
-1585 -1618 0
-1585 -1619 0
-1585 -1620 0
-1585 -1621 0
-1585 -1622 0
-1585 -1623 0
-1585 -1624 0
-1585 -1625 0
-1585 -1626 0
-1585 -1627 0
-1585 -1628 0
-1585 -1629 0
-1585 -1630 0
-1585 -1631 0
-1586 -1587 0
-1586 -1588 0
-1586 -1589 0
-1586 -1590 0
-1586 -1591 0
-1586 -1592 0
-1586 -1593 0
-1586 -1594 0
-1586 -1595 0
-1586 -1596 0
-1586 -1597 0
-1586 -1598 0
-1586 -1599 0
-1586 -1600 0
-1586 -1601 0
-1586 -1602 0
-1586 -1603 0
-1586 -1604 0
-1586 -1605 0
-1586 -1606 0
-1586 -1607 0
-1586 -1608 0
-1586 -1609 0
-1586 -1610 0
-1586 -1611 0
-1586 -1612 0
-1586 -1613 0
-1586 -1614 0
-1586 -1615 0
-1586 -1616 0
-1586 -1617 0
-1586 -1618 0
-1586 -1619 0
-1586 -1620 0
-1586 -1621 0
-1586 -1622 0
-1586 -1623 0
-1586 -1624 0
-1586 -1625 0
-1586 -1626 0
-1586 -1627 0
-1586 -1628 0
-1586 -1629 0
-1586 -1630 0
-1586 -1631 0
-1587 -1588 0
-1587 -1589 0
-1587 -1590 0
-1587 -1591 0
-1587 -1592 0
-1587 -1593 0
-1587 -1594 0
-1587 -1595 0
-1587 -1596 0
-1587 -1597 0
-1587 -1598 0
-1587 -1599 0
-1587 -1600 0
-1587 -1601 0
-1587 -1602 0
-1587 -1603 0
-1587 -1604 0
-1587 -1605 0
-1587 -1606 0
-1587 -1607 0
-1587 -1608 0
-1587 -1609 0
-1587 -1610 0
-1587 -1611 0
-1587 -1612 0
-1587 -1613 0
-1587 -1614 0
-1587 -1615 0
-1587 -1616 0
-1587 -1617 0
-1587 -1618 0
-1587 -1619 0
-1587 -1620 0
-1587 -1621 0
-1587 -1622 0
-1587 -1623 0
-1587 -1624 0
-1587 -1625 0
-1587 -1626 0
-1587 -1627 0
-1587 -1628 0
-1587 -1629 0
-1587 -1630 0
-1587 -1631 0
-1588 -1589 0
-1588 -1590 0
-1588 -1591 0
-1588 -1592 0
-1588 -1593 0
-1588 -1594 0
-1588 -1595 0
-1588 -1596 0
-1588 -1597 0
-1588 -1598 0
-1588 -1599 0
-1588 -1600 0
-1588 -1601 0
-1588 -1602 0
-1588 -1603 0
-1588 -1604 0
-1588 -1605 0
-1588 -1606 0
-1588 -1607 0
-1588 -1608 0
-1588 -1609 0
-1588 -1610 0
-1588 -1611 0
-1588 -1612 0
-1588 -1613 0
-1588 -1614 0
-1588 -1615 0
-1588 -1616 0
-1588 -1617 0
-1588 -1618 0
-1588 -1619 0
-1588 -1620 0
-1588 -1621 0
-1588 -1622 0
-1588 -1623 0
-1588 -1624 0
-1588 -1625 0
-1588 -1626 0
-1588 -1627 0
-1588 -1628 0
-1588 -1629 0
-1588 -1630 0
-1588 -1631 0
-1589 -1590 0
-1589 -1591 0
-1589 -1592 0
-1589 -1593 0
-1589 -1594 0
-1589 -1595 0
-1589 -1596 0
-1589 -1597 0
-1589 -1598 0
-1589 -1599 0
-1589 -1600 0
-1589 -1601 0
-1589 -1602 0
-1589 -1603 0
-1589 -1604 0
-1589 -1605 0
-1589 -1606 0
-1589 -1607 0
-1589 -1608 0
-1589 -1609 0
-1589 -1610 0
-1589 -1611 0
-1589 -1612 0
-1589 -1613 0
-1589 -1614 0
-1589 -1615 0
-1589 -1616 0
-1589 -1617 0
-1589 -1618 0
-1589 -1619 0
-1589 -1620 0
-1589 -1621 0
-1589 -1622 0
-1589 -1623 0
-1589 -1624 0
-1589 -1625 0
-1589 -1626 0
-1589 -1627 0
-1589 -1628 0
-1589 -1629 0
-1589 -1630 0
-1589 -1631 0
-1590 -1591 0
-1590 -1592 0
-1590 -1593 0
-1590 -1594 0
-1590 -1595 0
-1590 -1596 0
-1590 -1597 0
-1590 -1598 0
-1590 -1599 0
-1590 -1600 0
-1590 -1601 0
-1590 -1602 0
-1590 -1603 0
-1590 -1604 0
-1590 -1605 0
-1590 -1606 0
-1590 -1607 0
-1590 -1608 0
-1590 -1609 0
-1590 -1610 0
-1590 -1611 0
-1590 -1612 0
-1590 -1613 0
-1590 -1614 0
-1590 -1615 0
-1590 -1616 0
-1590 -1617 0
-1590 -1618 0
-1590 -1619 0
-1590 -1620 0
-1590 -1621 0
-1590 -1622 0
-1590 -1623 0
-1590 -1624 0
-1590 -1625 0
-1590 -1626 0
-1590 -1627 0
-1590 -1628 0
-1590 -1629 0
-1590 -1630 0
-1590 -1631 0
-1591 -1592 0
-1591 -1593 0
-1591 -1594 0
-1591 -1595 0
-1591 -1596 0
-1591 -1597 0
-1591 -1598 0
-1591 -1599 0
-1591 -1600 0
-1591 -1601 0
-1591 -1602 0
-1591 -1603 0
-1591 -1604 0
-1591 -1605 0
-1591 -1606 0
-1591 -1607 0
-1591 -1608 0
-1591 -1609 0
-1591 -1610 0
-1591 -1611 0
-1591 -1612 0
-1591 -1613 0
-1591 -1614 0
-1591 -1615 0
-1591 -1616 0
-1591 -1617 0
-1591 -1618 0
-1591 -1619 0
-1591 -1620 0
-1591 -1621 0
-1591 -1622 0
-1591 -1623 0
-1591 -1624 0
-1591 -1625 0
-1591 -1626 0
-1591 -1627 0
-1591 -1628 0
-1591 -1629 0
-1591 -1630 0
-1591 -1631 0
-1592 -1593 0
-1592 -1594 0
-1592 -1595 0
-1592 -1596 0
-1592 -1597 0
-1592 -1598 0
-1592 -1599 0
-1592 -1600 0
-1592 -1601 0
-1592 -1602 0
-1592 -1603 0
-1592 -1604 0
-1592 -1605 0
-1592 -1606 0
-1592 -1607 0
-1592 -1608 0
-1592 -1609 0
-1592 -1610 0
-1592 -1611 0
-1592 -1612 0
-1592 -1613 0
-1592 -1614 0
-1592 -1615 0
-1592 -1616 0
-1592 -1617 0
-1592 -1618 0
-1592 -1619 0
-1592 -1620 0
-1592 -1621 0
-1592 -1622 0
-1592 -1623 0
-1592 -1624 0
-1592 -1625 0
-1592 -1626 0
-1592 -1627 0
-1592 -1628 0
-1592 -1629 0
-1592 -1630 0
-1592 -1631 0
-1593 -1594 0
-1593 -1595 0
-1593 -1596 0
-1593 -1597 0
-1593 -1598 0
-1593 -1599 0
-1593 -1600 0
-1593 -1601 0
-1593 -1602 0
-1593 -1603 0
-1593 -1604 0
-1593 -1605 0
-1593 -1606 0
-1593 -1607 0
-1593 -1608 0
-1593 -1609 0
-1593 -1610 0
-1593 -1611 0
-1593 -1612 0
-1593 -1613 0
-1593 -1614 0
-1593 -1615 0
-1593 -1616 0
-1593 -1617 0
-1593 -1618 0
-1593 -1619 0
-1593 -1620 0
-1593 -1621 0
-1593 -1622 0
-1593 -1623 0
-1593 -1624 0
-1593 -1625 0
-1593 -1626 0
-1593 -1627 0
-1593 -1628 0
-1593 -1629 0
-1593 -1630 0
-1593 -1631 0
-1594 -1595 0
-1594 -1596 0
-1594 -1597 0
-1594 -1598 0
-1594 -1599 0
-1594 -1600 0
-1594 -1601 0
-1594 -1602 0
-1594 -1603 0
-1594 -1604 0
-1594 -1605 0
-1594 -1606 0
-1594 -1607 0
-1594 -1608 0
-1594 -1609 0
-1594 -1610 0
-1594 -1611 0
-1594 -1612 0
-1594 -1613 0
-1594 -1614 0
-1594 -1615 0
-1594 -1616 0
-1594 -1617 0
-1594 -1618 0
-1594 -1619 0
-1594 -1620 0
-1594 -1621 0
-1594 -1622 0
-1594 -1623 0
-1594 -1624 0
-1594 -1625 0
-1594 -1626 0
-1594 -1627 0
-1594 -1628 0
-1594 -1629 0
-1594 -1630 0
-1594 -1631 0
-1595 -1596 0
-1595 -1597 0
-1595 -1598 0
-1595 -1599 0
-1595 -1600 0
-1595 -1601 0
-1595 -1602 0
-1595 -1603 0
-1595 -1604 0
-1595 -1605 0
-1595 -1606 0
-1595 -1607 0
-1595 -1608 0
-1595 -1609 0
-1595 -1610 0
-1595 -1611 0
-1595 -1612 0
-1595 -1613 0
-1595 -1614 0
-1595 -1615 0
-1595 -1616 0
-1595 -1617 0
-1595 -1618 0
-1595 -1619 0
-1595 -1620 0
-1595 -1621 0
-1595 -1622 0
-1595 -1623 0
-1595 -1624 0
-1595 -1625 0
-1595 -1626 0
-1595 -1627 0
-1595 -1628 0
-1595 -1629 0
-1595 -1630 0
-1595 -1631 0
-1596 -1597 0
-1596 -1598 0
-1596 -1599 0
-1596 -1600 0
-1596 -1601 0
-1596 -1602 0
-1596 -1603 0
-1596 -1604 0
-1596 -1605 0
-1596 -1606 0
-1596 -1607 0
-1596 -1608 0
-1596 -1609 0
-1596 -1610 0
-1596 -1611 0
-1596 -1612 0
-1596 -1613 0
-1596 -1614 0
-1596 -1615 0
-1596 -1616 0
-1596 -1617 0
-1596 -1618 0
-1596 -1619 0
-1596 -1620 0
-1596 -1621 0
-1596 -1622 0
-1596 -1623 0
-1596 -1624 0
-1596 -1625 0
-1596 -1626 0
-1596 -1627 0
-1596 -1628 0
-1596 -1629 0
-1596 -1630 0
-1596 -1631 0
-1597 -1598 0
-1597 -1599 0
-1597 -1600 0
-1597 -1601 0
-1597 -1602 0
-1597 -1603 0
-1597 -1604 0
-1597 -1605 0
-1597 -1606 0
-1597 -1607 0
-1597 -1608 0
-1597 -1609 0
-1597 -1610 0
-1597 -1611 0
-1597 -1612 0
-1597 -1613 0
-1597 -1614 0
-1597 -1615 0
-1597 -1616 0
-1597 -1617 0
-1597 -1618 0
-1597 -1619 0
-1597 -1620 0
-1597 -1621 0
-1597 -1622 0
-1597 -1623 0
-1597 -1624 0
-1597 -1625 0
-1597 -1626 0
-1597 -1627 0
-1597 -1628 0
-1597 -1629 0
-1597 -1630 0
-1597 -1631 0
-1598 -1599 0
-1598 -1600 0
-1598 -1601 0
-1598 -1602 0
-1598 -1603 0
-1598 -1604 0
-1598 -1605 0
-1598 -1606 0
-1598 -1607 0
-1598 -1608 0
-1598 -1609 0
-1598 -1610 0
-1598 -1611 0
-1598 -1612 0
-1598 -1613 0
-1598 -1614 0
-1598 -1615 0
-1598 -1616 0
-1598 -1617 0
-1598 -1618 0
-1598 -1619 0
-1598 -1620 0
-1598 -1621 0
-1598 -1622 0
-1598 -1623 0
-1598 -1624 0
-1598 -1625 0
-1598 -1626 0
-1598 -1627 0
-1598 -1628 0
-1598 -1629 0
-1598 -1630 0
-1598 -1631 0
-1599 -1600 0
-1599 -1601 0
-1599 -1602 0
-1599 -1603 0
-1599 -1604 0
-1599 -1605 0
-1599 -1606 0
-1599 -1607 0
-1599 -1608 0
-1599 -1609 0
-1599 -1610 0
-1599 -1611 0
-1599 -1612 0
-1599 -1613 0
-1599 -1614 0
-1599 -1615 0
-1599 -1616 0
-1599 -1617 0
-1599 -1618 0
-1599 -1619 0
-1599 -1620 0
-1599 -1621 0
-1599 -1622 0
-1599 -1623 0
-1599 -1624 0
-1599 -1625 0
-1599 -1626 0
-1599 -1627 0
-1599 -1628 0
-1599 -1629 0
-1599 -1630 0
-1599 -1631 0
-1600 -1601 0
-1600 -1602 0
-1600 -1603 0
-1600 -1604 0
-1600 -1605 0
-1600 -1606 0
-1600 -1607 0
-1600 -1608 0
-1600 -1609 0
-1600 -1610 0
-1600 -1611 0
-1600 -1612 0
-1600 -1613 0
-1600 -1614 0
-1600 -1615 0
-1600 -1616 0
-1600 -1617 0
-1600 -1618 0
-1600 -1619 0
-1600 -1620 0
-1600 -1621 0
-1600 -1622 0
-1600 -1623 0
-1600 -1624 0
-1600 -1625 0
-1600 -1626 0
-1600 -1627 0
-1600 -1628 0
-1600 -1629 0
-1600 -1630 0
-1600 -1631 0
-1601 -1602 0
-1601 -1603 0
-1601 -1604 0
-1601 -1605 0
-1601 -1606 0
-1601 -1607 0
-1601 -1608 0
-1601 -1609 0
-1601 -1610 0
-1601 -1611 0
-1601 -1612 0
-1601 -1613 0
-1601 -1614 0
-1601 -1615 0
-1601 -1616 0
-1601 -1617 0
-1601 -1618 0
-1601 -1619 0
-1601 -1620 0
-1601 -1621 0
-1601 -1622 0
-1601 -1623 0
-1601 -1624 0
-1601 -1625 0
-1601 -1626 0
-1601 -1627 0
-1601 -1628 0
-1601 -1629 0
-1601 -1630 0
-1601 -1631 0
-1602 -1603 0
-1602 -1604 0
-1602 -1605 0
-1602 -1606 0
-1602 -1607 0
-1602 -1608 0
-1602 -1609 0
-1602 -1610 0
-1602 -1611 0
-1602 -1612 0
-1602 -1613 0
-1602 -1614 0
-1602 -1615 0
-1602 -1616 0
-1602 -1617 0
-1602 -1618 0
-1602 -1619 0
-1602 -1620 0
-1602 -1621 0
-1602 -1622 0
-1602 -1623 0
-1602 -1624 0
-1602 -1625 0
-1602 -1626 0
-1602 -1627 0
-1602 -1628 0
-1602 -1629 0
-1602 -1630 0
-1602 -1631 0
-1603 -1604 0
-1603 -1605 0
-1603 -1606 0
-1603 -1607 0
-1603 -1608 0
-1603 -1609 0
-1603 -1610 0
-1603 -1611 0
-1603 -1612 0
-1603 -1613 0
-1603 -1614 0
-1603 -1615 0
-1603 -1616 0
-1603 -1617 0
-1603 -1618 0
-1603 -1619 0
-1603 -1620 0
-1603 -1621 0
-1603 -1622 0
-1603 -1623 0
-1603 -1624 0
-1603 -1625 0
-1603 -1626 0
-1603 -1627 0
-1603 -1628 0
-1603 -1629 0
-1603 -1630 0
-1603 -1631 0
-1604 -1605 0
-1604 -1606 0
-1604 -1607 0
-1604 -1608 0
-1604 -1609 0
-1604 -1610 0
-1604 -1611 0
-1604 -1612 0
-1604 -1613 0
-1604 -1614 0
-1604 -1615 0
-1604 -1616 0
-1604 -1617 0
-1604 -1618 0
-1604 -1619 0
-1604 -1620 0
-1604 -1621 0
-1604 -1622 0
-1604 -1623 0
-1604 -1624 0
-1604 -1625 0
-1604 -1626 0
-1604 -1627 0
-1604 -1628 0
-1604 -1629 0
-1604 -1630 0
-1604 -1631 0
-1605 -1606 0
-1605 -1607 0
-1605 -1608 0
-1605 -1609 0
-1605 -1610 0
-1605 -1611 0
-1605 -1612 0
-1605 -1613 0
-1605 -1614 0
-1605 -1615 0
-1605 -1616 0
-1605 -1617 0
-1605 -1618 0
-1605 -1619 0
-1605 -1620 0
-1605 -1621 0
-1605 -1622 0
-1605 -1623 0
-1605 -1624 0
-1605 -1625 0
-1605 -1626 0
-1605 -1627 0
-1605 -1628 0
-1605 -1629 0
-1605 -1630 0
-1605 -1631 0
-1606 -1607 0
-1606 -1608 0
-1606 -1609 0
-1606 -1610 0
-1606 -1611 0
-1606 -1612 0
-1606 -1613 0
-1606 -1614 0
-1606 -1615 0
-1606 -1616 0
-1606 -1617 0
-1606 -1618 0
-1606 -1619 0
-1606 -1620 0
-1606 -1621 0
-1606 -1622 0
-1606 -1623 0
-1606 -1624 0
-1606 -1625 0
-1606 -1626 0
-1606 -1627 0
-1606 -1628 0
-1606 -1629 0
-1606 -1630 0
-1606 -1631 0
-1607 -1608 0
-1607 -1609 0
-1607 -1610 0
-1607 -1611 0
-1607 -1612 0
-1607 -1613 0
-1607 -1614 0
-1607 -1615 0
-1607 -1616 0
-1607 -1617 0
-1607 -1618 0
-1607 -1619 0
-1607 -1620 0
-1607 -1621 0
-1607 -1622 0
-1607 -1623 0
-1607 -1624 0
-1607 -1625 0
-1607 -1626 0
-1607 -1627 0
-1607 -1628 0
-1607 -1629 0
-1607 -1630 0
-1607 -1631 0
-1608 -1609 0
-1608 -1610 0
-1608 -1611 0
-1608 -1612 0
-1608 -1613 0
-1608 -1614 0
-1608 -1615 0
-1608 -1616 0
-1608 -1617 0
-1608 -1618 0
-1608 -1619 0
-1608 -1620 0
-1608 -1621 0
-1608 -1622 0
-1608 -1623 0
-1608 -1624 0
-1608 -1625 0
-1608 -1626 0
-1608 -1627 0
-1608 -1628 0
-1608 -1629 0
-1608 -1630 0
-1608 -1631 0
-1609 -1610 0
-1609 -1611 0
-1609 -1612 0
-1609 -1613 0
-1609 -1614 0
-1609 -1615 0
-1609 -1616 0
-1609 -1617 0
-1609 -1618 0
-1609 -1619 0
-1609 -1620 0
-1609 -1621 0
-1609 -1622 0
-1609 -1623 0
-1609 -1624 0
-1609 -1625 0
-1609 -1626 0
-1609 -1627 0
-1609 -1628 0
-1609 -1629 0
-1609 -1630 0
-1609 -1631 0
-1610 -1611 0
-1610 -1612 0
-1610 -1613 0
-1610 -1614 0
-1610 -1615 0
-1610 -1616 0
-1610 -1617 0
-1610 -1618 0
-1610 -1619 0
-1610 -1620 0
-1610 -1621 0
-1610 -1622 0
-1610 -1623 0
-1610 -1624 0
-1610 -1625 0
-1610 -1626 0
-1610 -1627 0
-1610 -1628 0
-1610 -1629 0
-1610 -1630 0
-1610 -1631 0
-1611 -1612 0
-1611 -1613 0
-1611 -1614 0
-1611 -1615 0
-1611 -1616 0
-1611 -1617 0
-1611 -1618 0
-1611 -1619 0
-1611 -1620 0
-1611 -1621 0
-1611 -1622 0
-1611 -1623 0
-1611 -1624 0
-1611 -1625 0
-1611 -1626 0
-1611 -1627 0
-1611 -1628 0
-1611 -1629 0
-1611 -1630 0
-1611 -1631 0
-1612 -1613 0
-1612 -1614 0
-1612 -1615 0
-1612 -1616 0
-1612 -1617 0
-1612 -1618 0
-1612 -1619 0
-1612 -1620 0
-1612 -1621 0
-1612 -1622 0
-1612 -1623 0
-1612 -1624 0
-1612 -1625 0
-1612 -1626 0
-1612 -1627 0
-1612 -1628 0
-1612 -1629 0
-1612 -1630 0
-1612 -1631 0
-1613 -1614 0
-1613 -1615 0
-1613 -1616 0
-1613 -1617 0
-1613 -1618 0
-1613 -1619 0
-1613 -1620 0
-1613 -1621 0
-1613 -1622 0
-1613 -1623 0
-1613 -1624 0
-1613 -1625 0
-1613 -1626 0
-1613 -1627 0
-1613 -1628 0
-1613 -1629 0
-1613 -1630 0
-1613 -1631 0
-1614 -1615 0
-1614 -1616 0
-1614 -1617 0
-1614 -1618 0
-1614 -1619 0
-1614 -1620 0
-1614 -1621 0
-1614 -1622 0
-1614 -1623 0
-1614 -1624 0
-1614 -1625 0
-1614 -1626 0
-1614 -1627 0
-1614 -1628 0
-1614 -1629 0
-1614 -1630 0
-1614 -1631 0
-1615 -1616 0
-1615 -1617 0
-1615 -1618 0
-1615 -1619 0
-1615 -1620 0
-1615 -1621 0
-1615 -1622 0
-1615 -1623 0
-1615 -1624 0
-1615 -1625 0
-1615 -1626 0
-1615 -1627 0
-1615 -1628 0
-1615 -1629 0
-1615 -1630 0
-1615 -1631 0
-1616 -1617 0
-1616 -1618 0
-1616 -1619 0
-1616 -1620 0
-1616 -1621 0
-1616 -1622 0
-1616 -1623 0
-1616 -1624 0
-1616 -1625 0
-1616 -1626 0
-1616 -1627 0
-1616 -1628 0
-1616 -1629 0
-1616 -1630 0
-1616 -1631 0
-1617 -1618 0
-1617 -1619 0
-1617 -1620 0
-1617 -1621 0
-1617 -1622 0
-1617 -1623 0
-1617 -1624 0
-1617 -1625 0
-1617 -1626 0
-1617 -1627 0
-1617 -1628 0
-1617 -1629 0
-1617 -1630 0
-1617 -1631 0
-1618 -1619 0
-1618 -1620 0
-1618 -1621 0
-1618 -1622 0
-1618 -1623 0
-1618 -1624 0
-1618 -1625 0
-1618 -1626 0
-1618 -1627 0
-1618 -1628 0
-1618 -1629 0
-1618 -1630 0
-1618 -1631 0
-1619 -1620 0
-1619 -1621 0
-1619 -1622 0
-1619 -1623 0
-1619 -1624 0
-1619 -1625 0
-1619 -1626 0
-1619 -1627 0
-1619 -1628 0
-1619 -1629 0
-1619 -1630 0
-1619 -1631 0
-1620 -1621 0
-1620 -1622 0
-1620 -1623 0
-1620 -1624 0
-1620 -1625 0
-1620 -1626 0
-1620 -1627 0
-1620 -1628 0
-1620 -1629 0
-1620 -1630 0
-1620 -1631 0
-1621 -1622 0
-1621 -1623 0
-1621 -1624 0
-1621 -1625 0
-1621 -1626 0
-1621 -1627 0
-1621 -1628 0
-1621 -1629 0
-1621 -1630 0
-1621 -1631 0
-1622 -1623 0
-1622 -1624 0
-1622 -1625 0
-1622 -1626 0
-1622 -1627 0
-1622 -1628 0
-1622 -1629 0
-1622 -1630 0
-1622 -1631 0
-1623 -1624 0
-1623 -1625 0
-1623 -1626 0
-1623 -1627 0
-1623 -1628 0
-1623 -1629 0
-1623 -1630 0
-1623 -1631 0
-1624 -1625 0
-1624 -1626 0
-1624 -1627 0
-1624 -1628 0
-1624 -1629 0
-1624 -1630 0
-1624 -1631 0
-1625 -1626 0
-1625 -1627 0
-1625 -1628 0
-1625 -1629 0
-1625 -1630 0
-1625 -1631 0
-1626 -1627 0
-1626 -1628 0
-1626 -1629 0
-1626 -1630 0
-1626 -1631 0
-1627 -1628 0
-1627 -1629 0
-1627 -1630 0
-1627 -1631 0
-1628 -1629 0
-1628 -1630 0
-1628 -1631 0
-1629 -1630 0
-1629 -1631 0
-1630 -1631 0
-1548 593 0
-1548 741 0
-1548 -563 0
-1548 -564 0
-1548 -565 0
-1548 -566 0
-1548 -567 0
-1548 -581 763 0
-1548 -581 -646 0
-1548 -581 -670 0
-1548 -581 -694 0
-1548 -581 -556 -578 0
-1548 -582 764 0
-1548 -582 -647 0
-1548 -582 -671 0
-1548 -582 -695 0
-1548 -582 -556 -579 0
-1548 -583 765 0
-1548 -583 -648 0
-1548 -583 -672 0
-1548 -583 -696 0
-1548 -583 -556 -580 0
-1548 -584 0
-1549 593 0
-1549 742 0
-1549 -562 0
-1549 -564 0
-1549 -565 0
-1549 -566 0
-1549 -567 0
-1549 -581 763 0
-1549 -581 -650 0
-1549 -581 -674 0
-1549 -581 -698 0
-1549 -581 -557 -578 0
-1549 -582 764 0
-1549 -582 -651 0
-1549 -582 -675 0
-1549 -582 -699 0
-1549 -582 -557 -579 0
-1549 -583 765 0
-1549 -583 -652 0
-1549 -583 -676 0
-1549 -583 -700 0
-1549 -583 -557 -580 0
-1549 -584 0
-1550 593 0
-1550 743 0
-1550 -562 0
-1550 -563 0
-1550 -565 0
-1550 -566 0
-1550 -567 0
-1550 -581 763 0
-1550 -581 -654 0
-1550 -581 -678 0
-1550 -581 -702 0
-1550 -581 -558 -578 0
-1550 -582 764 0
-1550 -582 -655 0
-1550 -582 -679 0
-1550 -582 -703 0
-1550 -582 -558 -579 0
-1550 -583 765 0
-1550 -583 -656 0
-1550 -583 -680 0
-1550 -583 -704 0
-1550 -583 -558 -580 0
-1550 -584 0
-1551 593 0
-1551 744 0
-1551 -562 0
-1551 -563 0
-1551 -564 0
-1551 -566 0
-1551 -567 0
-1551 -581 763 0
-1551 -581 -658 0
-1551 -581 -682 0
-1551 -581 -706 0
-1551 -581 -559 -578 0
-1551 -582 764 0
-1551 -582 -659 0
-1551 -582 -683 0
-1551 -582 -707 0
-1551 -582 -559 -579 0
-1551 -583 765 0
-1551 -583 -660 0
-1551 -583 -684 0
-1551 -583 -708 0
-1551 -583 -559 -580 0
-1551 -584 0
-1552 593 0
-1552 745 0
-1552 -562 0
-1552 -563 0
-1552 -564 0
-1552 -565 0
-1552 -567 0
-1552 -581 763 0
-1552 -581 -662 0
-1552 -581 -686 0
-1552 -581 -710 0
-1552 -581 -560 -578 0
-1552 -582 764 0
-1552 -582 -663 0
-1552 -582 -687 0
-1552 -582 -711 0
-1552 -582 -560 -579 0
-1552 -583 765 0
-1552 -583 -664 0
-1552 -583 -688 0
-1552 -583 -712 0
-1552 -583 -560 -580 0
-1552 -584 0
-1553 593 0
-1553 746 0
-1553 -562 0
-1553 -563 0
-1553 -564 0
-1553 -565 0
-1553 -566 0
-1553 -581 763 0
-1553 -581 -666 0
-1553 -581 -690 0
-1553 -581 -714 0
-1553 -581 -561 -578 0
-1553 -582 764 0
-1553 -582 -667 0
-1553 -582 -691 0
-1553 -582 -715 0
-1553 -582 -561 -579 0
-1553 -583 765 0
-1553 -583 -668 0
-1553 -583 -692 0
-1553 -583 -716 0
-1553 -583 -561 -580 0
-1553 -584 0
-1554 593 0
-1554 741 0
-1554 -569 0
-1554 -570 0
-1554 -571 0
-1554 -572 0
-1554 -585 763 0
-1554 -585 -646 0
-1554 -585 -670 0
-1554 -585 -694 0
-1554 -585 -556 -578 0
-1554 -586 764 0
-1554 -586 -647 0
-1554 -586 -671 0
-1554 -586 -695 0
-1554 -586 -556 -579 0
-1554 -587 765 0
-1554 -587 -648 0
-1554 -587 -672 0
-1554 -587 -696 0
-1554 -587 -556 -580 0
-1554 -588 0
-1555 593 0
-1555 742 0
-1555 -570 0
-1555 -571 0
-1555 -572 0
-1555 -585 763 0
-1555 -585 -650 0
-1555 -585 -674 0
-1555 -585 -698 0
-1555 -585 -557 -578 0
-1555 -586 764 0
-1555 -586 -651 0
-1555 -586 -675 0
-1555 -586 -699 0
-1555 -586 -557 -579 0
-1555 -587 765 0
-1555 -587 -652 0
-1555 -587 -676 0
-1555 -587 -700 0
-1555 -587 -557 -580 0
-1555 -588 0
-1556 593 0
-1556 743 0
-1556 -568 0
-1556 -571 0
-1556 -572 0
-1556 -585 763 0
-1556 -585 -654 0
-1556 -585 -678 0
-1556 -585 -702 0
-1556 -585 -558 -578 0
-1556 -586 764 0
-1556 -586 -655 0
-1556 -586 -679 0
-1556 -586 -703 0
-1556 -586 -558 -579 0
-1556 -587 765 0
-1556 -587 -656 0
-1556 -587 -680 0
-1556 -587 -704 0
-1556 -587 -558 -580 0
-1556 -588 0
-1557 593 0
-1557 744 0
-1557 -568 0
-1557 -569 0
-1557 -572 0
-1557 -585 763 0
-1557 -585 -658 0
-1557 -585 -682 0
-1557 -585 -706 0
-1557 -585 -559 -578 0
-1557 -586 764 0
-1557 -586 -659 0
-1557 -586 -683 0
-1557 -586 -707 0
-1557 -586 -559 -579 0
-1557 -587 765 0
-1557 -587 -660 0
-1557 -587 -684 0
-1557 -587 -708 0
-1557 -587 -559 -580 0
-1557 -588 0
-1558 593 0
-1558 745 0
-1558 -568 0
-1558 -569 0
-1558 -570 0
-1558 -585 763 0
-1558 -585 -662 0
-1558 -585 -686 0
-1558 -585 -710 0
-1558 -585 -560 -578 0
-1558 -586 764 0
-1558 -586 -663 0
-1558 -586 -687 0
-1558 -586 -711 0
-1558 -586 -560 -579 0
-1558 -587 765 0
-1558 -587 -664 0
-1558 -587 -688 0
-1558 -587 -712 0
-1558 -587 -560 -580 0
-1558 -588 0
-1559 593 0
-1559 746 0
-1559 -568 0
-1559 -569 0
-1559 -570 0
-1559 -571 0
-1559 -585 763 0
-1559 -585 -666 0
-1559 -585 -690 0
-1559 -585 -714 0
-1559 -585 -561 -578 0
-1559 -586 764 0
-1559 -586 -667 0
-1559 -586 -691 0
-1559 -586 -715 0
-1559 -586 -561 -579 0
-1559 -587 765 0
-1559 -587 -668 0
-1559 -587 -692 0
-1559 -587 -716 0
-1559 -587 -561 -580 0
-1559 -588 0
-1560 593 0
-1560 741 0
-1560 -574 0
-1560 -575 0
-1560 -576 0
-1560 -589 763 0
-1560 -589 -646 0
-1560 -589 -670 0
-1560 -589 -694 0
-1560 -589 -556 -578 0
-1560 -590 764 0
-1560 -590 -647 0
-1560 -590 -671 0
-1560 -590 -695 0
-1560 -590 -556 -579 0
-1560 -591 765 0
-1560 -591 -648 0
-1560 -591 -672 0
-1560 -591 -696 0
-1560 -591 -556 -580 0
-1560 -592 0
-1561 593 0
-1561 742 0
-1561 -575 0
-1561 -576 0
-1561 -589 763 0
-1561 -589 -650 0
-1561 -589 -674 0
-1561 -589 -698 0
-1561 -589 -557 -578 0
-1561 -590 764 0
-1561 -590 -651 0
-1561 -590 -675 0
-1561 -590 -699 0
-1561 -590 -557 -579 0
-1561 -591 765 0
-1561 -591 -652 0
-1561 -591 -676 0
-1561 -591 -700 0
-1561 -591 -557 -580 0
-1561 -592 0
-1562 593 0
-1562 743 0
-1562 -576 0
-1562 -589 763 0
-1562 -589 -654 0
-1562 -589 -678 0
-1562 -589 -702 0
-1562 -589 -558 -578 0
-1562 -590 764 0
-1562 -590 -655 0
-1562 -590 -679 0
-1562 -590 -703 0
-1562 -590 -558 -579 0
-1562 -591 765 0
-1562 -591 -656 0
-1562 -591 -680 0
-1562 -591 -704 0
-1562 -591 -558 -580 0
-1562 -592 0
-1563 593 0
-1563 744 0
-1563 -573 0
-1563 -589 763 0
-1563 -589 -658 0
-1563 -589 -682 0
-1563 -589 -706 0
-1563 -589 -559 -578 0
-1563 -590 764 0
-1563 -590 -659 0
-1563 -590 -683 0
-1563 -590 -707 0
-1563 -590 -559 -579 0
-1563 -591 765 0
-1563 -591 -660 0
-1563 -591 -684 0
-1563 -591 -708 0
-1563 -591 -559 -580 0
-1563 -592 0
-1564 593 0
-1564 745 0
-1564 -573 0
-1564 -574 0
-1564 -589 763 0
-1564 -589 -662 0
-1564 -589 -686 0
-1564 -589 -710 0
-1564 -589 -560 -578 0
-1564 -590 764 0
-1564 -590 -663 0
-1564 -590 -687 0
-1564 -590 -711 0
-1564 -590 -560 -579 0
-1564 -591 765 0
-1564 -591 -664 0
-1564 -591 -688 0
-1564 -591 -712 0
-1564 -591 -560 -580 0
-1564 -592 0
-1565 593 0
-1565 746 0
-1565 -573 0
-1565 -574 0
-1565 -575 0
-1565 -589 763 0
-1565 -589 -666 0
-1565 -589 -690 0
-1565 -589 -714 0
-1565 -589 -561 -578 0
-1565 -590 764 0
-1565 -590 -667 0
-1565 -590 -691 0
-1565 -590 -715 0
-1565 -590 -561 -579 0
-1565 -591 765 0
-1565 -591 -668 0
-1565 -591 -692 0
-1565 -591 -716 0
-1565 -591 -561 -580 0
-1565 -592 0
-1566 593 0
-1566 741 0
-1566 762 0
-1566 -645 0
-1566 -669 0
-1566 -693 0
-1566 -556 -577 0
-1567 593 0
-1567 742 0
-1567 762 0
-1567 -649 0
-1567 -673 0
-1567 -697 0
-1567 -557 -577 0
-1568 593 0
-1568 743 0
-1568 762 0
-1568 -653 0
-1568 -677 0
-1568 -701 0
-1568 -558 -577 0
-1569 593 0
-1569 744 0
-1569 762 0
-1569 -657 0
-1569 -681 0
-1569 -705 0
-1569 -559 -577 0
-1570 593 0
-1570 745 0
-1570 762 0
-1570 -661 0
-1570 -685 0
-1570 -709 0
-1570 -560 -577 0
-1571 593 0
-1571 746 0
-1571 762 0
-1571 -665 0
-1571 -689 0
-1571 -713 0
-1571 -561 -577 0
-1572 594 0
-1572 747 0
-1572 -557 0
-1572 -558 0
-1572 -559 0
-1572 -560 0
-1572 -561 0
-1572 -577 767 0
-1572 -577 -622 0
-1572 -577 -670 0
-1572 -577 -694 0
-1572 -577 -562 -582 0
-1572 -578 768 0
-1572 -578 -623 0
-1572 -578 -671 0
-1572 -578 -695 0
-1572 -578 -562 -583 0
-1572 -579 769 0
-1572 -579 -624 0
-1572 -579 -672 0
-1572 -579 -696 0
-1572 -579 -562 -584 0
-1572 -580 0
-1573 594 0
-1573 748 0
-1573 -556 0
-1573 -558 0
-1573 -559 0
-1573 -560 0
-1573 -561 0
-1573 -577 767 0
-1573 -577 -626 0
-1573 -577 -674 0
-1573 -577 -698 0
-1573 -577 -563 -582 0
-1573 -578 768 0
-1573 -578 -627 0
-1573 -578 -675 0
-1573 -578 -699 0
-1573 -578 -563 -583 0
-1573 -579 769 0
-1573 -579 -628 0
-1573 -579 -676 0
-1573 -579 -700 0
-1573 -579 -563 -584 0
-1573 -580 0
-1574 594 0
-1574 749 0
-1574 -556 0
-1574 -557 0
-1574 -559 0
-1574 -560 0
-1574 -561 0
-1574 -577 767 0
-1574 -577 -630 0
-1574 -577 -678 0
-1574 -577 -702 0
-1574 -577 -564 -582 0
-1574 -578 768 0
-1574 -578 -631 0
-1574 -578 -679 0
-1574 -578 -703 0
-1574 -578 -564 -583 0
-1574 -579 769 0
-1574 -579 -632 0
-1574 -579 -680 0
-1574 -579 -704 0
-1574 -579 -564 -584 0
-1574 -580 0
-1575 594 0
-1575 750 0
-1575 -556 0
-1575 -557 0
-1575 -558 0
-1575 -560 0
-1575 -561 0
-1575 -577 767 0
-1575 -577 -634 0
-1575 -577 -682 0
-1575 -577 -706 0
-1575 -577 -565 -582 0
-1575 -578 768 0
-1575 -578 -635 0
-1575 -578 -683 0
-1575 -578 -707 0
-1575 -578 -565 -583 0
-1575 -579 769 0
-1575 -579 -636 0
-1575 -579 -684 0
-1575 -579 -708 0
-1575 -579 -565 -584 0
-1575 -580 0
-1576 594 0
-1576 751 0
-1576 -556 0
-1576 -557 0
-1576 -558 0
-1576 -559 0
-1576 -561 0
-1576 -577 767 0
-1576 -577 -638 0
-1576 -577 -686 0
-1576 -577 -710 0
-1576 -577 -566 -582 0
-1576 -578 768 0
-1576 -578 -639 0
-1576 -578 -687 0
-1576 -578 -711 0
-1576 -578 -566 -583 0
-1576 -579 769 0
-1576 -579 -640 0
-1576 -579 -688 0
-1576 -579 -712 0
-1576 -579 -566 -584 0
-1576 -580 0
-1577 594 0
-1577 752 0
-1577 -556 0
-1577 -557 0
-1577 -558 0
-1577 -559 0
-1577 -560 0
-1577 -577 767 0
-1577 -577 -642 0
-1577 -577 -690 0
-1577 -577 -714 0
-1577 -577 -567 -582 0
-1577 -578 768 0
-1577 -578 -643 0
-1577 -578 -691 0
-1577 -578 -715 0
-1577 -578 -567 -583 0
-1577 -579 769 0
-1577 -579 -644 0
-1577 -579 -692 0
-1577 -579 -716 0
-1577 -579 -567 -584 0
-1577 -580 0
-1578 594 0
-1578 747 0
-1578 -569 0
-1578 -570 0
-1578 -571 0
-1578 -572 0
-1578 -585 767 0
-1578 -585 -622 0
-1578 -585 -670 0
-1578 -585 -694 0
-1578 -585 -562 -582 0
-1578 -586 768 0
-1578 -586 -623 0
-1578 -586 -671 0
-1578 -586 -695 0
-1578 -586 -562 -583 0
-1578 -587 769 0
-1578 -587 -624 0
-1578 -587 -672 0
-1578 -587 -696 0
-1578 -587 -562 -584 0
-1578 -588 0
-1579 594 0
-1579 748 0
-1579 -570 0
-1579 -571 0
-1579 -572 0
-1579 -585 767 0
-1579 -585 -626 0
-1579 -585 -674 0
-1579 -585 -698 0
-1579 -585 -563 -582 0
-1579 -586 768 0
-1579 -586 -627 0
-1579 -586 -675 0
-1579 -586 -699 0
-1579 -586 -563 -583 0
-1579 -587 769 0
-1579 -587 -628 0
-1579 -587 -676 0
-1579 -587 -700 0
-1579 -587 -563 -584 0
-1579 -588 0
-1580 594 0
-1580 749 0
-1580 -568 0
-1580 -571 0
-1580 -572 0
-1580 -585 767 0
-1580 -585 -630 0
-1580 -585 -678 0
-1580 -585 -702 0
-1580 -585 -564 -582 0
-1580 -586 768 0
-1580 -586 -631 0
-1580 -586 -679 0
-1580 -586 -703 0
-1580 -586 -564 -583 0
-1580 -587 769 0
-1580 -587 -632 0
-1580 -587 -680 0
-1580 -587 -704 0
-1580 -587 -564 -584 0
-1580 -588 0
-1581 594 0
-1581 750 0
-1581 -568 0
-1581 -569 0
-1581 -572 0
-1581 -585 767 0
-1581 -585 -634 0
-1581 -585 -682 0
-1581 -585 -706 0
-1581 -585 -565 -582 0
-1581 -586 768 0
-1581 -586 -635 0
-1581 -586 -683 0
-1581 -586 -707 0
-1581 -586 -565 -583 0
-1581 -587 769 0
-1581 -587 -636 0
-1581 -587 -684 0
-1581 -587 -708 0
-1581 -587 -565 -584 0
-1581 -588 0
-1582 594 0
-1582 751 0
-1582 -568 0
-1582 -569 0
-1582 -570 0
-1582 -585 767 0
-1582 -585 -638 0
-1582 -585 -686 0
-1582 -585 -710 0
-1582 -585 -566 -582 0
-1582 -586 768 0
-1582 -586 -639 0
-1582 -586 -687 0
-1582 -586 -711 0
-1582 -586 -566 -583 0
-1582 -587 769 0
-1582 -587 -640 0
-1582 -587 -688 0
-1582 -587 -712 0
-1582 -587 -566 -584 0
-1582 -588 0
-1583 594 0
-1583 752 0
-1583 -568 0
-1583 -569 0
-1583 -570 0
-1583 -571 0
-1583 -585 767 0
-1583 -585 -642 0
-1583 -585 -690 0
-1583 -585 -714 0
-1583 -585 -567 -582 0
-1583 -586 768 0
-1583 -586 -643 0
-1583 -586 -691 0
-1583 -586 -715 0
-1583 -586 -567 -583 0
-1583 -587 769 0
-1583 -587 -644 0
-1583 -587 -692 0
-1583 -587 -716 0
-1583 -587 -567 -584 0
-1583 -588 0
-1584 594 0
-1584 747 0
-1584 -574 0
-1584 -575 0
-1584 -576 0
-1584 -589 767 0
-1584 -589 -622 0
-1584 -589 -670 0
-1584 -589 -694 0
-1584 -589 -562 -582 0
-1584 -590 768 0
-1584 -590 -623 0
-1584 -590 -671 0
-1584 -590 -695 0
-1584 -590 -562 -583 0
-1584 -591 769 0
-1584 -591 -624 0
-1584 -591 -672 0
-1584 -591 -696 0
-1584 -591 -562 -584 0
-1584 -592 0
-1585 594 0
-1585 748 0
-1585 -575 0
-1585 -576 0
-1585 -589 767 0
-1585 -589 -626 0
-1585 -589 -674 0
-1585 -589 -698 0
-1585 -589 -563 -582 0
-1585 -590 768 0
-1585 -590 -627 0
-1585 -590 -675 0
-1585 -590 -699 0
-1585 -590 -563 -583 0
-1585 -591 769 0
-1585 -591 -628 0
-1585 -591 -676 0
-1585 -591 -700 0
-1585 -591 -563 -584 0
-1585 -592 0
-1586 594 0
-1586 749 0
-1586 -576 0
-1586 -589 767 0
-1586 -589 -630 0
-1586 -589 -678 0
-1586 -589 -702 0
-1586 -589 -564 -582 0
-1586 -590 768 0
-1586 -590 -631 0
-1586 -590 -679 0
-1586 -590 -703 0
-1586 -590 -564 -583 0
-1586 -591 769 0
-1586 -591 -632 0
-1586 -591 -680 0
-1586 -591 -704 0
-1586 -591 -564 -584 0
-1586 -592 0
-1587 594 0
-1587 750 0
-1587 -573 0
-1587 -589 767 0
-1587 -589 -634 0
-1587 -589 -682 0
-1587 -589 -706 0
-1587 -589 -565 -582 0
-1587 -590 768 0
-1587 -590 -635 0
-1587 -590 -683 0
-1587 -590 -707 0
-1587 -590 -565 -583 0
-1587 -591 769 0
-1587 -591 -636 0
-1587 -591 -684 0
-1587 -591 -708 0
-1587 -591 -565 -584 0
-1587 -592 0
-1588 594 0
-1588 751 0
-1588 -573 0
-1588 -574 0
-1588 -589 767 0
-1588 -589 -638 0
-1588 -589 -686 0
-1588 -589 -710 0
-1588 -589 -566 -582 0
-1588 -590 768 0
-1588 -590 -639 0
-1588 -590 -687 0
-1588 -590 -711 0
-1588 -590 -566 -583 0
-1588 -591 769 0
-1588 -591 -640 0
-1588 -591 -688 0
-1588 -591 -712 0
-1588 -591 -566 -584 0
-1588 -592 0
-1589 594 0
-1589 752 0
-1589 -573 0
-1589 -574 0
-1589 -575 0
-1589 -589 767 0
-1589 -589 -642 0
-1589 -589 -690 0
-1589 -589 -714 0
-1589 -589 -567 -582 0
-1589 -590 768 0
-1589 -590 -643 0
-1589 -590 -691 0
-1589 -590 -715 0
-1589 -590 -567 -583 0
-1589 -591 769 0
-1589 -591 -644 0
-1589 -591 -692 0
-1589 -591 -716 0
-1589 -591 -567 -584 0
-1589 -592 0
-1590 594 0
-1590 747 0
-1590 766 0
-1590 -621 0
-1590 -669 0
-1590 -693 0
-1590 -562 -581 0
-1591 594 0
-1591 748 0
-1591 766 0
-1591 -625 0
-1591 -673 0
-1591 -697 0
-1591 -563 -581 0
-1592 594 0
-1592 749 0
-1592 766 0
-1592 -629 0
-1592 -677 0
-1592 -701 0
-1592 -564 -581 0
-1593 594 0
-1593 750 0
-1593 766 0
-1593 -633 0
-1593 -681 0
-1593 -705 0
-1593 -565 -581 0
-1594 594 0
-1594 751 0
-1594 766 0
-1594 -637 0
-1594 -685 0
-1594 -709 0
-1594 -566 -581 0
-1595 594 0
-1595 752 0
-1595 766 0
-1595 -641 0
-1595 -689 0
-1595 -713 0
-1595 -567 -581 0
-1596 595 0
-1596 753 0
-1596 -558 0
-1596 -559 0
-1596 -560 0
-1596 -561 0
-1596 -577 771 0
-1596 -577 -622 0
-1596 -577 -626 0
-1596 -577 -646 0
-1596 -577 -650 0
-1596 -577 -694 0
-1596 -577 -698 0
-1596 -577 -568 -586 0
-1596 -578 772 0
-1596 -578 -623 0
-1596 -578 -627 0
-1596 -578 -647 0
-1596 -578 -651 0
-1596 -578 -695 0
-1596 -578 -699 0
-1596 -578 -568 -587 0
-1596 -579 773 0
-1596 -579 -624 0
-1596 -579 -628 0
-1596 -579 -648 0
-1596 -579 -652 0
-1596 -579 -696 0
-1596 -579 -700 0
-1596 -579 -568 -588 0
-1596 -580 0
-1597 595 0
-1597 754 0
-1597 -556 0
-1597 -559 0
-1597 -560 0
-1597 -561 0
-1597 -577 771 0
-1597 -577 -626 0
-1597 -577 -630 0
-1597 -577 -650 0
-1597 -577 -654 0
-1597 -577 -698 0
-1597 -577 -702 0
-1597 -577 -569 -586 0
-1597 -578 772 0
-1597 -578 -627 0
-1597 -578 -631 0
-1597 -578 -651 0
-1597 -578 -655 0
-1597 -578 -699 0
-1597 -578 -703 0
-1597 -578 -569 -587 0
-1597 -579 773 0
-1597 -579 -628 0
-1597 -579 -632 0
-1597 -579 -652 0
-1597 -579 -656 0
-1597 -579 -700 0
-1597 -579 -704 0
-1597 -579 -569 -588 0
-1597 -580 0
-1598 595 0
-1598 755 0
-1598 -556 0
-1598 -557 0
-1598 -560 0
-1598 -561 0
-1598 -577 771 0
-1598 -577 -630 0
-1598 -577 -634 0
-1598 -577 -654 0
-1598 -577 -658 0
-1598 -577 -702 0
-1598 -577 -706 0
-1598 -577 -570 -586 0
-1598 -578 772 0
-1598 -578 -631 0
-1598 -578 -635 0
-1598 -578 -655 0
-1598 -578 -659 0
-1598 -578 -703 0
-1598 -578 -707 0
-1598 -578 -570 -587 0
-1598 -579 773 0
-1598 -579 -632 0
-1598 -579 -636 0
-1598 -579 -656 0
-1598 -579 -660 0
-1598 -579 -704 0
-1598 -579 -708 0
-1598 -579 -570 -588 0
-1598 -580 0
-1599 595 0
-1599 756 0
-1599 -556 0
-1599 -557 0
-1599 -558 0
-1599 -561 0
-1599 -577 771 0
-1599 -577 -634 0
-1599 -577 -638 0
-1599 -577 -658 0
-1599 -577 -662 0
-1599 -577 -706 0
-1599 -577 -710 0
-1599 -577 -571 -586 0
-1599 -578 772 0
-1599 -578 -635 0
-1599 -578 -639 0
-1599 -578 -659 0
-1599 -578 -663 0
-1599 -578 -707 0
-1599 -578 -711 0
-1599 -578 -571 -587 0
-1599 -579 773 0
-1599 -579 -636 0
-1599 -579 -640 0
-1599 -579 -660 0
-1599 -579 -664 0
-1599 -579 -708 0
-1599 -579 -712 0
-1599 -579 -571 -588 0
-1599 -580 0
-1600 595 0
-1600 757 0
-1600 -556 0
-1600 -557 0
-1600 -558 0
-1600 -559 0
-1600 -577 771 0
-1600 -577 -638 0
-1600 -577 -642 0
-1600 -577 -662 0
-1600 -577 -666 0
-1600 -577 -710 0
-1600 -577 -714 0
-1600 -577 -572 -586 0
-1600 -578 772 0
-1600 -578 -639 0
-1600 -578 -643 0
-1600 -578 -663 0
-1600 -578 -667 0
-1600 -578 -711 0
-1600 -578 -715 0
-1600 -578 -572 -587 0
-1600 -579 773 0
-1600 -579 -640 0
-1600 -579 -644 0
-1600 -579 -664 0
-1600 -579 -668 0
-1600 -579 -712 0
-1600 -579 -716 0
-1600 -579 -572 -588 0
-1600 -580 0
-1601 595 0
-1601 753 0
-1601 -564 0
-1601 -565 0
-1601 -566 0
-1601 -567 0
-1601 -581 771 0
-1601 -581 -622 0
-1601 -581 -626 0
-1601 -581 -646 0
-1601 -581 -650 0
-1601 -581 -694 0
-1601 -581 -698 0
-1601 -581 -568 -586 0
-1601 -582 772 0
-1601 -582 -623 0
-1601 -582 -627 0
-1601 -582 -647 0
-1601 -582 -651 0
-1601 -582 -695 0
-1601 -582 -699 0
-1601 -582 -568 -587 0
-1601 -583 773 0
-1601 -583 -624 0
-1601 -583 -628 0
-1601 -583 -648 0
-1601 -583 -652 0
-1601 -583 -696 0
-1601 -583 -700 0
-1601 -583 -568 -588 0
-1601 -584 0
-1602 595 0
-1602 754 0
-1602 -562 0
-1602 -565 0
-1602 -566 0
-1602 -567 0
-1602 -581 771 0
-1602 -581 -626 0
-1602 -581 -630 0
-1602 -581 -650 0
-1602 -581 -654 0
-1602 -581 -698 0
-1602 -581 -702 0
-1602 -581 -569 -586 0
-1602 -582 772 0
-1602 -582 -627 0
-1602 -582 -631 0
-1602 -582 -651 0
-1602 -582 -655 0
-1602 -582 -699 0
-1602 -582 -703 0
-1602 -582 -569 -587 0
-1602 -583 773 0
-1602 -583 -628 0
-1602 -583 -632 0
-1602 -583 -652 0
-1602 -583 -656 0
-1602 -583 -700 0
-1602 -583 -704 0
-1602 -583 -569 -588 0
-1602 -584 0
-1603 595 0
-1603 755 0
-1603 -562 0
-1603 -563 0
-1603 -566 0
-1603 -567 0
-1603 -581 771 0
-1603 -581 -630 0
-1603 -581 -634 0
-1603 -581 -654 0
-1603 -581 -658 0
-1603 -581 -702 0
-1603 -581 -706 0
-1603 -581 -570 -586 0
-1603 -582 772 0
-1603 -582 -631 0
-1603 -582 -635 0
-1603 -582 -655 0
-1603 -582 -659 0
-1603 -582 -703 0
-1603 -582 -707 0
-1603 -582 -570 -587 0
-1603 -583 773 0
-1603 -583 -632 0
-1603 -583 -636 0
-1603 -583 -656 0
-1603 -583 -660 0
-1603 -583 -704 0
-1603 -583 -708 0
-1603 -583 -570 -588 0
-1603 -584 0
-1604 595 0
-1604 756 0
-1604 -562 0
-1604 -563 0
-1604 -564 0
-1604 -567 0
-1604 -581 771 0
-1604 -581 -634 0
-1604 -581 -638 0
-1604 -581 -658 0
-1604 -581 -662 0
-1604 -581 -706 0
-1604 -581 -710 0
-1604 -581 -571 -586 0
-1604 -582 772 0
-1604 -582 -635 0
-1604 -582 -639 0
-1604 -582 -659 0
-1604 -582 -663 0
-1604 -582 -707 0
-1604 -582 -711 0
-1604 -582 -571 -587 0
-1604 -583 773 0
-1604 -583 -636 0
-1604 -583 -640 0
-1604 -583 -660 0
-1604 -583 -664 0
-1604 -583 -708 0
-1604 -583 -712 0
-1604 -583 -571 -588 0
-1604 -584 0
-1605 595 0
-1605 757 0
-1605 -562 0
-1605 -563 0
-1605 -564 0
-1605 -565 0
-1605 -581 771 0
-1605 -581 -638 0
-1605 -581 -642 0
-1605 -581 -662 0
-1605 -581 -666 0
-1605 -581 -710 0
-1605 -581 -714 0
-1605 -581 -572 -586 0
-1605 -582 772 0
-1605 -582 -639 0
-1605 -582 -643 0
-1605 -582 -663 0
-1605 -582 -667 0
-1605 -582 -711 0
-1605 -582 -715 0
-1605 -582 -572 -587 0
-1605 -583 773 0
-1605 -583 -640 0
-1605 -583 -644 0
-1605 -583 -664 0
-1605 -583 -668 0
-1605 -583 -712 0
-1605 -583 -716 0
-1605 -583 -572 -588 0
-1605 -584 0
-1606 595 0
-1606 753 0
-1606 -575 0
-1606 -576 0
-1606 -589 771 0
-1606 -589 -622 0
-1606 -589 -626 0
-1606 -589 -646 0
-1606 -589 -650 0
-1606 -589 -694 0
-1606 -589 -698 0
-1606 -589 -568 -586 0
-1606 -590 772 0
-1606 -590 -623 0
-1606 -590 -627 0
-1606 -590 -647 0
-1606 -590 -651 0
-1606 -590 -695 0
-1606 -590 -699 0
-1606 -590 -568 -587 0
-1606 -591 773 0
-1606 -591 -624 0
-1606 -591 -628 0
-1606 -591 -648 0
-1606 -591 -652 0
-1606 -591 -696 0
-1606 -591 -700 0
-1606 -591 -568 -588 0
-1606 -592 0
-1607 595 0
-1607 754 0
-1607 -576 0
-1607 -589 771 0
-1607 -589 -626 0
-1607 -589 -630 0
-1607 -589 -650 0
-1607 -589 -654 0
-1607 -589 -698 0
-1607 -589 -702 0
-1607 -589 -569 -586 0
-1607 -590 772 0
-1607 -590 -627 0
-1607 -590 -631 0
-1607 -590 -651 0
-1607 -590 -655 0
-1607 -590 -699 0
-1607 -590 -703 0
-1607 -590 -569 -587 0
-1607 -591 773 0
-1607 -591 -628 0
-1607 -591 -632 0
-1607 -591 -652 0
-1607 -591 -656 0
-1607 -591 -700 0
-1607 -591 -704 0
-1607 -591 -569 -588 0
-1607 -592 0
-1608 595 0
-1608 755 0
-1608 -589 771 0
-1608 -589 -630 0
-1608 -589 -634 0
-1608 -589 -654 0
-1608 -589 -658 0
-1608 -589 -702 0
-1608 -589 -706 0
-1608 -589 -570 -586 0
-1608 -590 772 0
-1608 -590 -631 0
-1608 -590 -635 0
-1608 -590 -655 0
-1608 -590 -659 0
-1608 -590 -703 0
-1608 -590 -707 0
-1608 -590 -570 -587 0
-1608 -591 773 0
-1608 -591 -632 0
-1608 -591 -636 0
-1608 -591 -656 0
-1608 -591 -660 0
-1608 -591 -704 0
-1608 -591 -708 0
-1608 -591 -570 -588 0
-1608 -592 0
-1609 595 0
-1609 756 0
-1609 -573 0
-1609 -589 771 0
-1609 -589 -634 0
-1609 -589 -638 0
-1609 -589 -658 0
-1609 -589 -662 0
-1609 -589 -706 0
-1609 -589 -710 0
-1609 -589 -571 -586 0
-1609 -590 772 0
-1609 -590 -635 0
-1609 -590 -639 0
-1609 -590 -659 0
-1609 -590 -663 0
-1609 -590 -707 0
-1609 -590 -711 0
-1609 -590 -571 -587 0
-1609 -591 773 0
-1609 -591 -636 0
-1609 -591 -640 0
-1609 -591 -660 0
-1609 -591 -664 0
-1609 -591 -708 0
-1609 -591 -712 0
-1609 -591 -571 -588 0
-1609 -592 0
-1610 595 0
-1610 757 0
-1610 -573 0
-1610 -574 0
-1610 -589 771 0
-1610 -589 -638 0
-1610 -589 -642 0
-1610 -589 -662 0
-1610 -589 -666 0
-1610 -589 -710 0
-1610 -589 -714 0
-1610 -589 -572 -586 0
-1610 -590 772 0
-1610 -590 -639 0
-1610 -590 -643 0
-1610 -590 -663 0
-1610 -590 -667 0
-1610 -590 -711 0
-1610 -590 -715 0
-1610 -590 -572 -587 0
-1610 -591 773 0
-1610 -591 -640 0
-1610 -591 -644 0
-1610 -591 -664 0
-1610 -591 -668 0
-1610 -591 -712 0
-1610 -591 -716 0
-1610 -591 -572 -588 0
-1610 -592 0
-1611 595 0
-1611 753 0
-1611 770 0
-1611 -621 0
-1611 -625 0
-1611 -645 0
-1611 -649 0
-1611 -693 0
-1611 -697 0
-1611 -568 -585 0
-1612 595 0
-1612 754 0
-1612 770 0
-1612 -625 0
-1612 -629 0
-1612 -649 0
-1612 -653 0
-1612 -697 0
-1612 -701 0
-1612 -569 -585 0
-1613 595 0
-1613 755 0
-1613 770 0
-1613 -629 0
-1613 -633 0
-1613 -653 0
-1613 -657 0
-1613 -701 0
-1613 -705 0
-1613 -570 -585 0
-1614 595 0
-1614 756 0
-1614 770 0
-1614 -633 0
-1614 -637 0
-1614 -657 0
-1614 -661 0
-1614 -705 0
-1614 -709 0
-1614 -571 -585 0
-1615 595 0
-1615 757 0
-1615 770 0
-1615 -637 0
-1615 -641 0
-1615 -661 0
-1615 -665 0
-1615 -709 0
-1615 -713 0
-1615 -572 -585 0
-1616 596 0
-1616 758 0
-1616 -559 0
-1616 -560 0
-1616 -561 0
-1616 -577 775 0
-1616 -577 -622 0
-1616 -577 -626 0
-1616 -577 -630 0
-1616 -577 -646 0
-1616 -577 -650 0
-1616 -577 -654 0
-1616 -577 -670 0
-1616 -577 -674 0
-1616 -577 -678 0
-1616 -577 -573 -590 0
-1616 -578 776 0
-1616 -578 -623 0
-1616 -578 -627 0
-1616 -578 -631 0
-1616 -578 -647 0
-1616 -578 -651 0
-1616 -578 -655 0
-1616 -578 -671 0
-1616 -578 -675 0
-1616 -578 -679 0
-1616 -578 -573 -591 0
-1616 -579 777 0
-1616 -579 -624 0
-1616 -579 -628 0
-1616 -579 -632 0
-1616 -579 -648 0
-1616 -579 -652 0
-1616 -579 -656 0
-1616 -579 -672 0
-1616 -579 -676 0
-1616 -579 -680 0
-1616 -579 -573 -592 0
-1616 -580 0
-1617 596 0
-1617 759 0
-1617 -556 0
-1617 -560 0
-1617 -561 0
-1617 -577 775 0
-1617 -577 -626 0
-1617 -577 -630 0
-1617 -577 -634 0
-1617 -577 -650 0
-1617 -577 -654 0
-1617 -577 -658 0
-1617 -577 -674 0
-1617 -577 -678 0
-1617 -577 -682 0
-1617 -577 -574 -590 0
-1617 -578 776 0
-1617 -578 -627 0
-1617 -578 -631 0
-1617 -578 -635 0
-1617 -578 -651 0
-1617 -578 -655 0
-1617 -578 -659 0
-1617 -578 -675 0
-1617 -578 -679 0
-1617 -578 -683 0
-1617 -578 -574 -591 0
-1617 -579 777 0
-1617 -579 -628 0
-1617 -579 -632 0
-1617 -579 -636 0
-1617 -579 -652 0
-1617 -579 -656 0
-1617 -579 -660 0
-1617 -579 -676 0
-1617 -579 -680 0
-1617 -579 -684 0
-1617 -579 -574 -592 0
-1617 -580 0
-1618 596 0
-1618 760 0
-1618 -556 0
-1618 -557 0
-1618 -561 0
-1618 -577 775 0
-1618 -577 -630 0
-1618 -577 -634 0
-1618 -577 -638 0
-1618 -577 -654 0
-1618 -577 -658 0
-1618 -577 -662 0
-1618 -577 -678 0
-1618 -577 -682 0
-1618 -577 -686 0
-1618 -577 -575 -590 0
-1618 -578 776 0
-1618 -578 -631 0
-1618 -578 -635 0
-1618 -578 -639 0
-1618 -578 -655 0
-1618 -578 -659 0
-1618 -578 -663 0
-1618 -578 -679 0
-1618 -578 -683 0
-1618 -578 -687 0
-1618 -578 -575 -591 0
-1618 -579 777 0
-1618 -579 -632 0
-1618 -579 -636 0
-1618 -579 -640 0
-1618 -579 -656 0
-1618 -579 -660 0
-1618 -579 -664 0
-1618 -579 -680 0
-1618 -579 -684 0
-1618 -579 -688 0
-1618 -579 -575 -592 0
-1618 -580 0
-1619 596 0
-1619 761 0
-1619 -556 0
-1619 -557 0
-1619 -558 0
-1619 -577 775 0
-1619 -577 -634 0
-1619 -577 -638 0
-1619 -577 -642 0
-1619 -577 -658 0
-1619 -577 -662 0
-1619 -577 -666 0
-1619 -577 -682 0
-1619 -577 -686 0
-1619 -577 -690 0
-1619 -577 -576 -590 0
-1619 -578 776 0
-1619 -578 -635 0
-1619 -578 -639 0
-1619 -578 -643 0
-1619 -578 -659 0
-1619 -578 -663 0
-1619 -578 -667 0
-1619 -578 -683 0
-1619 -578 -687 0
-1619 -578 -691 0
-1619 -578 -576 -591 0
-1619 -579 777 0
-1619 -579 -636 0
-1619 -579 -640 0
-1619 -579 -644 0
-1619 -579 -660 0
-1619 -579 -664 0
-1619 -579 -668 0
-1619 -579 -684 0
-1619 -579 -688 0
-1619 -579 -692 0
-1619 -579 -576 -592 0
-1619 -580 0
-1620 596 0
-1620 758 0
-1620 -565 0
-1620 -566 0
-1620 -567 0
-1620 -581 775 0
-1620 -581 -622 0
-1620 -581 -626 0
-1620 -581 -630 0
-1620 -581 -646 0
-1620 -581 -650 0
-1620 -581 -654 0
-1620 -581 -670 0
-1620 -581 -674 0
-1620 -581 -678 0
-1620 -581 -573 -590 0
-1620 -582 776 0
-1620 -582 -623 0
-1620 -582 -627 0
-1620 -582 -631 0
-1620 -582 -647 0
-1620 -582 -651 0
-1620 -582 -655 0
-1620 -582 -671 0
-1620 -582 -675 0
-1620 -582 -679 0
-1620 -582 -573 -591 0
-1620 -583 777 0
-1620 -583 -624 0
-1620 -583 -628 0
-1620 -583 -632 0
-1620 -583 -648 0
-1620 -583 -652 0
-1620 -583 -656 0
-1620 -583 -672 0
-1620 -583 -676 0
-1620 -583 -680 0
-1620 -583 -573 -592 0
-1620 -584 0
-1621 596 0
-1621 759 0
-1621 -562 0
-1621 -566 0
-1621 -567 0
-1621 -581 775 0
-1621 -581 -626 0
-1621 -581 -630 0
-1621 -581 -634 0
-1621 -581 -650 0
-1621 -581 -654 0
-1621 -581 -658 0
-1621 -581 -674 0
-1621 -581 -678 0
-1621 -581 -682 0
-1621 -581 -574 -590 0
-1621 -582 776 0
-1621 -582 -627 0
-1621 -582 -631 0
-1621 -582 -635 0
-1621 -582 -651 0
-1621 -582 -655 0
-1621 -582 -659 0
-1621 -582 -675 0
-1621 -582 -679 0
-1621 -582 -683 0
-1621 -582 -574 -591 0
-1621 -583 777 0
-1621 -583 -628 0
-1621 -583 -632 0
-1621 -583 -636 0
-1621 -583 -652 0
-1621 -583 -656 0
-1621 -583 -660 0
-1621 -583 -676 0
-1621 -583 -680 0
-1621 -583 -684 0
-1621 -583 -574 -592 0
-1621 -584 0
-1622 596 0
-1622 760 0
-1622 -562 0
-1622 -563 0
-1622 -567 0
-1622 -581 775 0
-1622 -581 -630 0
-1622 -581 -634 0
-1622 -581 -638 0
-1622 -581 -654 0
-1622 -581 -658 0
-1622 -581 -662 0
-1622 -581 -678 0
-1622 -581 -682 0
-1622 -581 -686 0
-1622 -581 -575 -590 0
-1622 -582 776 0
-1622 -582 -631 0
-1622 -582 -635 0
-1622 -582 -639 0
-1622 -582 -655 0
-1622 -582 -659 0
-1622 -582 -663 0
-1622 -582 -679 0
-1622 -582 -683 0
-1622 -582 -687 0
-1622 -582 -575 -591 0
-1622 -583 777 0
-1622 -583 -632 0
-1622 -583 -636 0
-1622 -583 -640 0
-1622 -583 -656 0
-1622 -583 -660 0
-1622 -583 -664 0
-1622 -583 -680 0
-1622 -583 -684 0
-1622 -583 -688 0
-1622 -583 -575 -592 0
-1622 -584 0
-1623 596 0
-1623 761 0
-1623 -562 0
-1623 -563 0
-1623 -564 0
-1623 -581 775 0
-1623 -581 -634 0
-1623 -581 -638 0
-1623 -581 -642 0
-1623 -581 -658 0
-1623 -581 -662 0
-1623 -581 -666 0
-1623 -581 -682 0
-1623 -581 -686 0
-1623 -581 -690 0
-1623 -581 -576 -590 0
-1623 -582 776 0
-1623 -582 -635 0
-1623 -582 -639 0
-1623 -582 -643 0
-1623 -582 -659 0
-1623 -582 -663 0
-1623 -582 -667 0
-1623 -582 -683 0
-1623 -582 -687 0
-1623 -582 -691 0
-1623 -582 -576 -591 0
-1623 -583 777 0
-1623 -583 -636 0
-1623 -583 -640 0
-1623 -583 -644 0
-1623 -583 -660 0
-1623 -583 -664 0
-1623 -583 -668 0
-1623 -583 -684 0
-1623 -583 -688 0
-1623 -583 -692 0
-1623 -583 -576 -592 0
-1623 -584 0
-1624 596 0
-1624 758 0
-1624 -571 0
-1624 -572 0
-1624 -585 775 0
-1624 -585 -622 0
-1624 -585 -626 0
-1624 -585 -630 0
-1624 -585 -646 0
-1624 -585 -650 0
-1624 -585 -654 0
-1624 -585 -670 0
-1624 -585 -674 0
-1624 -585 -678 0
-1624 -585 -573 -590 0
-1624 -586 776 0
-1624 -586 -623 0
-1624 -586 -627 0
-1624 -586 -631 0
-1624 -586 -647 0
-1624 -586 -651 0
-1624 -586 -655 0
-1624 -586 -671 0
-1624 -586 -675 0
-1624 -586 -679 0
-1624 -586 -573 -591 0
-1624 -587 777 0
-1624 -587 -624 0
-1624 -587 -628 0
-1624 -587 -632 0
-1624 -587 -648 0
-1624 -587 -652 0
-1624 -587 -656 0
-1624 -587 -672 0
-1624 -587 -676 0
-1624 -587 -680 0
-1624 -587 -573 -592 0
-1624 -588 0
-1625 596 0
-1625 759 0
-1625 -572 0
-1625 -585 775 0
-1625 -585 -626 0
-1625 -585 -630 0
-1625 -585 -634 0
-1625 -585 -650 0
-1625 -585 -654 0
-1625 -585 -658 0
-1625 -585 -674 0
-1625 -585 -678 0
-1625 -585 -682 0
-1625 -585 -574 -590 0
-1625 -586 776 0
-1625 -586 -627 0
-1625 -586 -631 0
-1625 -586 -635 0
-1625 -586 -651 0
-1625 -586 -655 0
-1625 -586 -659 0
-1625 -586 -675 0
-1625 -586 -679 0
-1625 -586 -683 0
-1625 -586 -574 -591 0
-1625 -587 777 0
-1625 -587 -628 0
-1625 -587 -632 0
-1625 -587 -636 0
-1625 -587 -652 0
-1625 -587 -656 0
-1625 -587 -660 0
-1625 -587 -676 0
-1625 -587 -680 0
-1625 -587 -684 0
-1625 -587 -574 -592 0
-1625 -588 0
-1626 596 0
-1626 760 0
-1626 -568 0
-1626 -585 775 0
-1626 -585 -630 0
-1626 -585 -634 0
-1626 -585 -638 0
-1626 -585 -654 0
-1626 -585 -658 0
-1626 -585 -662 0
-1626 -585 -678 0
-1626 -585 -682 0
-1626 -585 -686 0
-1626 -585 -575 -590 0
-1626 -586 776 0
-1626 -586 -631 0
-1626 -586 -635 0
-1626 -586 -639 0
-1626 -586 -655 0
-1626 -586 -659 0
-1626 -586 -663 0
-1626 -586 -679 0
-1626 -586 -683 0
-1626 -586 -687 0
-1626 -586 -575 -591 0
-1626 -587 777 0
-1626 -587 -632 0
-1626 -587 -636 0
-1626 -587 -640 0
-1626 -587 -656 0
-1626 -587 -660 0
-1626 -587 -664 0
-1626 -587 -680 0
-1626 -587 -684 0
-1626 -587 -688 0
-1626 -587 -575 -592 0
-1626 -588 0
-1627 596 0
-1627 761 0
-1627 -568 0
-1627 -569 0
-1627 -585 775 0
-1627 -585 -634 0
-1627 -585 -638 0
-1627 -585 -642 0
-1627 -585 -658 0
-1627 -585 -662 0
-1627 -585 -666 0
-1627 -585 -682 0
-1627 -585 -686 0
-1627 -585 -690 0
-1627 -585 -576 -590 0
-1627 -586 776 0
-1627 -586 -635 0
-1627 -586 -639 0
-1627 -586 -643 0
-1627 -586 -659 0
-1627 -586 -663 0
-1627 -586 -667 0
-1627 -586 -683 0
-1627 -586 -687 0
-1627 -586 -691 0
-1627 -586 -576 -591 0
-1627 -587 777 0
-1627 -587 -636 0
-1627 -587 -640 0
-1627 -587 -644 0
-1627 -587 -660 0
-1627 -587 -664 0
-1627 -587 -668 0
-1627 -587 -684 0
-1627 -587 -688 0
-1627 -587 -692 0
-1627 -587 -576 -592 0
-1627 -588 0
-1628 596 0
-1628 758 0
-1628 774 0
-1628 -621 0
-1628 -625 0
-1628 -629 0
-1628 -645 0
-1628 -649 0
-1628 -653 0
-1628 -669 0
-1628 -673 0
-1628 -677 0
-1628 -573 -589 0
-1629 596 0
-1629 759 0
-1629 774 0
-1629 -625 0
-1629 -629 0
-1629 -633 0
-1629 -649 0
-1629 -653 0
-1629 -657 0
-1629 -673 0
-1629 -677 0
-1629 -681 0
-1629 -574 -589 0
-1630 596 0
-1630 760 0
-1630 774 0
-1630 -629 0
-1630 -633 0
-1630 -637 0
-1630 -653 0
-1630 -657 0
-1630 -661 0
-1630 -677 0
-1630 -681 0
-1630 -685 0
-1630 -575 -589 0
-1631 596 0
-1631 761 0
-1631 774 0
-1631 -633 0
-1631 -637 0
-1631 -641 0
-1631 -657 0
-1631 -661 0
-1631 -665 0
-1631 -681 0
-1631 -685 0
-1631 -689 0
-1631 -576 -589 0
-556 741 1548 1549 1550 1551 1552 1553 1554 1555 1556 1557 1558 1559 1560 1561 1562 1563 1564 1565 1566 1567 1568 1569 1570 1571 0
-557 742 1548 1549 1550 1551 1552 1553 1554 1555 1556 1557 1558 1559 1560 1561 1562 1563 1564 1565 1566 1567 1568 1569 1570 1571 0
-558 743 1548 1549 1550 1551 1552 1553 1554 1555 1556 1557 1558 1559 1560 1561 1562 1563 1564 1565 1566 1567 1568 1569 1570 1571 0
-559 744 1548 1549 1550 1551 1552 1553 1554 1555 1556 1557 1558 1559 1560 1561 1562 1563 1564 1565 1566 1567 1568 1569 1570 1571 0
-560 745 1548 1549 1550 1551 1552 1553 1554 1555 1556 1557 1558 1559 1560 1561 1562 1563 1564 1565 1566 1567 1568 1569 1570 1571 0
-561 746 1548 1549 1550 1551 1552 1553 1554 1555 1556 1557 1558 1559 1560 1561 1562 1563 1564 1565 1566 1567 1568 1569 1570 1571 0
-577 762 1548 1549 1550 1551 1552 1553 1554 1555 1556 1557 1558 1559 1560 1561 1562 1563 1564 1565 1566 1567 1568 1569 1570 1571 0
-578 763 1548 1549 1550 1551 1552 1553 1554 1555 1556 1557 1558 1559 1560 1561 1562 1563 1564 1565 1566 1567 1568 1569 1570 1571 0
-579 764 1548 1549 1550 1551 1552 1553 1554 1555 1556 1557 1558 1559 1560 1561 1562 1563 1564 1565 1566 1567 1568 1569 1570 1571 0
-580 765 1548 1549 1550 1551 1552 1553 1554 1555 1556 1557 1558 1559 1560 1561 1562 1563 1564 1565 1566 1567 1568 1569 1570 1571 0
-562 747 1572 1573 1574 1575 1576 1577 1578 1579 1580 1581 1582 1583 1584 1585 1586 1587 1588 1589 1590 1591 1592 1593 1594 1595 0
-563 748 1572 1573 1574 1575 1576 1577 1578 1579 1580 1581 1582 1583 1584 1585 1586 1587 1588 1589 1590 1591 1592 1593 1594 1595 0
-564 749 1572 1573 1574 1575 1576 1577 1578 1579 1580 1581 1582 1583 1584 1585 1586 1587 1588 1589 1590 1591 1592 1593 1594 1595 0
-565 750 1572 1573 1574 1575 1576 1577 1578 1579 1580 1581 1582 1583 1584 1585 1586 1587 1588 1589 1590 1591 1592 1593 1594 1595 0
-566 751 1572 1573 1574 1575 1576 1577 1578 1579 1580 1581 1582 1583 1584 1585 1586 1587 1588 1589 1590 1591 1592 1593 1594 1595 0
-567 752 1572 1573 1574 1575 1576 1577 1578 1579 1580 1581 1582 1583 1584 1585 1586 1587 1588 1589 1590 1591 1592 1593 1594 1595 0
-581 766 1572 1573 1574 1575 1576 1577 1578 1579 1580 1581 1582 1583 1584 1585 1586 1587 1588 1589 1590 1591 1592 1593 1594 1595 0
-582 767 1572 1573 1574 1575 1576 1577 1578 1579 1580 1581 1582 1583 1584 1585 1586 1587 1588 1589 1590 1591 1592 1593 1594 1595 0
-583 768 1572 1573 1574 1575 1576 1577 1578 1579 1580 1581 1582 1583 1584 1585 1586 1587 1588 1589 1590 1591 1592 1593 1594 1595 0
-584 769 1572 1573 1574 1575 1576 1577 1578 1579 1580 1581 1582 1583 1584 1585 1586 1587 1588 1589 1590 1591 1592 1593 1594 1595 0
-568 753 1596 1597 1598 1599 1600 1601 1602 1603 1604 1605 1606 1607 1608 1609 1610 1611 1612 1613 1614 1615 0
-569 754 1596 1597 1598 1599 1600 1601 1602 1603 1604 1605 1606 1607 1608 1609 1610 1611 1612 1613 1614 1615 0
-570 755 1596 1597 1598 1599 1600 1601 1602 1603 1604 1605 1606 1607 1608 1609 1610 1611 1612 1613 1614 1615 0
-571 756 1596 1597 1598 1599 1600 1601 1602 1603 1604 1605 1606 1607 1608 1609 1610 1611 1612 1613 1614 1615 0
-572 757 1596 1597 1598 1599 1600 1601 1602 1603 1604 1605 1606 1607 1608 1609 1610 1611 1612 1613 1614 1615 0
-585 770 1596 1597 1598 1599 1600 1601 1602 1603 1604 1605 1606 1607 1608 1609 1610 1611 1612 1613 1614 1615 0
-586 771 1596 1597 1598 1599 1600 1601 1602 1603 1604 1605 1606 1607 1608 1609 1610 1611 1612 1613 1614 1615 0
-587 772 1596 1597 1598 1599 1600 1601 1602 1603 1604 1605 1606 1607 1608 1609 1610 1611 1612 1613 1614 1615 0
-588 773 1596 1597 1598 1599 1600 1601 1602 1603 1604 1605 1606 1607 1608 1609 1610 1611 1612 1613 1614 1615 0
-573 758 1616 1617 1618 1619 1620 1621 1622 1623 1624 1625 1626 1627 1628 1629 1630 1631 0
-574 759 1616 1617 1618 1619 1620 1621 1622 1623 1624 1625 1626 1627 1628 1629 1630 1631 0
-575 760 1616 1617 1618 1619 1620 1621 1622 1623 1624 1625 1626 1627 1628 1629 1630 1631 0
-576 761 1616 1617 1618 1619 1620 1621 1622 1623 1624 1625 1626 1627 1628 1629 1630 1631 0
-589 774 1616 1617 1618 1619 1620 1621 1622 1623 1624 1625 1626 1627 1628 1629 1630 1631 0
-590 775 1616 1617 1618 1619 1620 1621 1622 1623 1624 1625 1626 1627 1628 1629 1630 1631 0
-591 776 1616 1617 1618 1619 1620 1621 1622 1623 1624 1625 1626 1627 1628 1629 1630 1631 0
-592 777 1616 1617 1618 1619 1620 1621 1622 1623 1624 1625 1626 1627 1628 1629 1630 1631 0
-1632 -1633 0
-1632 -1634 0
-1632 -1635 0
-1632 -1636 0
-1632 -1637 0
-1632 -1638 0
-1632 -1639 0
-1632 -1640 0
-1632 -1641 0
-1632 -1642 0
-1632 -1643 0
-1632 -1644 0
-1632 -1645 0
-1632 -1646 0
-1632 -1647 0
-1632 -1648 0
-1632 -1649 0
-1632 -1650 0
-1632 -1651 0
-1632 -1652 0
-1632 -1653 0
-1632 -1654 0
-1632 -1655 0
-1632 -1656 0
-1632 -1657 0
-1632 -1658 0
-1632 -1659 0
-1632 -1660 0
-1632 -1661 0
-1632 -1662 0
-1632 -1663 0
-1632 -1664 0
-1632 -1665 0
-1632 -1666 0
-1632 -1667 0
-1632 -1668 0
-1632 -1669 0
-1632 -1670 0
-1632 -1671 0
-1632 -1672 0
-1632 -1673 0
-1632 -1674 0
-1632 -1675 0
-1632 -1676 0
-1632 -1677 0
-1632 -1678 0
-1632 -1679 0
-1632 -1680 0
-1632 -1681 0
-1632 -1682 0
-1632 -1683 0
-1632 -1684 0
-1632 -1685 0
-1632 -1686 0
-1632 -1687 0
-1632 -1688 0
-1632 -1689 0
-1632 -1690 0
-1632 -1691 0
-1632 -1692 0
-1632 -1693 0
-1632 -1694 0
-1632 -1695 0
-1632 -1696 0
-1632 -1697 0
-1632 -1698 0
-1632 -1699 0
-1632 -1700 0
-1632 -1701 0
-1632 -1702 0
-1632 -1703 0
-1632 -1704 0
-1632 -1705 0
-1632 -1706 0
-1632 -1707 0
-1632 -1708 0
-1632 -1709 0
-1632 -1710 0
-1632 -1711 0
-1632 -1712 0
-1632 -1713 0
-1632 -1714 0
-1632 -1715 0
-1633 -1634 0
-1633 -1635 0
-1633 -1636 0
-1633 -1637 0
-1633 -1638 0
-1633 -1639 0
-1633 -1640 0
-1633 -1641 0
-1633 -1642 0
-1633 -1643 0
-1633 -1644 0
-1633 -1645 0
-1633 -1646 0
-1633 -1647 0
-1633 -1648 0
-1633 -1649 0
-1633 -1650 0
-1633 -1651 0
-1633 -1652 0
-1633 -1653 0
-1633 -1654 0
-1633 -1655 0
-1633 -1656 0
-1633 -1657 0
-1633 -1658 0
-1633 -1659 0
-1633 -1660 0
-1633 -1661 0
-1633 -1662 0
-1633 -1663 0
-1633 -1664 0
-1633 -1665 0
-1633 -1666 0
-1633 -1667 0
-1633 -1668 0
-1633 -1669 0
-1633 -1670 0
-1633 -1671 0
-1633 -1672 0
-1633 -1673 0
-1633 -1674 0
-1633 -1675 0
-1633 -1676 0
-1633 -1677 0
-1633 -1678 0
-1633 -1679 0
-1633 -1680 0
-1633 -1681 0
-1633 -1682 0
-1633 -1683 0
-1633 -1684 0
-1633 -1685 0
-1633 -1686 0
-1633 -1687 0
-1633 -1688 0
-1633 -1689 0
-1633 -1690 0
-1633 -1691 0
-1633 -1692 0
-1633 -1693 0
-1633 -1694 0
-1633 -1695 0
-1633 -1696 0
-1633 -1697 0
-1633 -1698 0
-1633 -1699 0
-1633 -1700 0
-1633 -1701 0
-1633 -1702 0
-1633 -1703 0
-1633 -1704 0
-1633 -1705 0
-1633 -1706 0
-1633 -1707 0
-1633 -1708 0
-1633 -1709 0
-1633 -1710 0
-1633 -1711 0
-1633 -1712 0
-1633 -1713 0
-1633 -1714 0
-1633 -1715 0
-1634 -1635 0
-1634 -1636 0
-1634 -1637 0
-1634 -1638 0
-1634 -1639 0
-1634 -1640 0
-1634 -1641 0
-1634 -1642 0
-1634 -1643 0
-1634 -1644 0
-1634 -1645 0
-1634 -1646 0
-1634 -1647 0
-1634 -1648 0
-1634 -1649 0
-1634 -1650 0
-1634 -1651 0
-1634 -1652 0
-1634 -1653 0
-1634 -1654 0
-1634 -1655 0
-1634 -1656 0
-1634 -1657 0
-1634 -1658 0
-1634 -1659 0
-1634 -1660 0
-1634 -1661 0
-1634 -1662 0
-1634 -1663 0
-1634 -1664 0
-1634 -1665 0
-1634 -1666 0
-1634 -1667 0
-1634 -1668 0
-1634 -1669 0
-1634 -1670 0
-1634 -1671 0
-1634 -1672 0
-1634 -1673 0
-1634 -1674 0
-1634 -1675 0
-1634 -1676 0
-1634 -1677 0
-1634 -1678 0
-1634 -1679 0
-1634 -1680 0
-1634 -1681 0
-1634 -1682 0
-1634 -1683 0
-1634 -1684 0
-1634 -1685 0
-1634 -1686 0
-1634 -1687 0
-1634 -1688 0
-1634 -1689 0
-1634 -1690 0
-1634 -1691 0
-1634 -1692 0
-1634 -1693 0
-1634 -1694 0
-1634 -1695 0
-1634 -1696 0
-1634 -1697 0
-1634 -1698 0
-1634 -1699 0
-1634 -1700 0
-1634 -1701 0
-1634 -1702 0
-1634 -1703 0
-1634 -1704 0
-1634 -1705 0
-1634 -1706 0
-1634 -1707 0
-1634 -1708 0
-1634 -1709 0
-1634 -1710 0
-1634 -1711 0
-1634 -1712 0
-1634 -1713 0
-1634 -1714 0
-1634 -1715 0
-1635 -1636 0
-1635 -1637 0
-1635 -1638 0
-1635 -1639 0
-1635 -1640 0
-1635 -1641 0
-1635 -1642 0
-1635 -1643 0
-1635 -1644 0
-1635 -1645 0
-1635 -1646 0
-1635 -1647 0
-1635 -1648 0
-1635 -1649 0
-1635 -1650 0
-1635 -1651 0
-1635 -1652 0
-1635 -1653 0
-1635 -1654 0
-1635 -1655 0
-1635 -1656 0
-1635 -1657 0
-1635 -1658 0
-1635 -1659 0
-1635 -1660 0
-1635 -1661 0
-1635 -1662 0
-1635 -1663 0
-1635 -1664 0
-1635 -1665 0
-1635 -1666 0
-1635 -1667 0
-1635 -1668 0
-1635 -1669 0
-1635 -1670 0
-1635 -1671 0
-1635 -1672 0
-1635 -1673 0
-1635 -1674 0
-1635 -1675 0
-1635 -1676 0
-1635 -1677 0
-1635 -1678 0
-1635 -1679 0
-1635 -1680 0
-1635 -1681 0
-1635 -1682 0
-1635 -1683 0
-1635 -1684 0
-1635 -1685 0
-1635 -1686 0
-1635 -1687 0
-1635 -1688 0
-1635 -1689 0
-1635 -1690 0
-1635 -1691 0
-1635 -1692 0
-1635 -1693 0
-1635 -1694 0
-1635 -1695 0
-1635 -1696 0
-1635 -1697 0
-1635 -1698 0
-1635 -1699 0
-1635 -1700 0
-1635 -1701 0
-1635 -1702 0
-1635 -1703 0
-1635 -1704 0
-1635 -1705 0
-1635 -1706 0
-1635 -1707 0
-1635 -1708 0
-1635 -1709 0
-1635 -1710 0
-1635 -1711 0
-1635 -1712 0
-1635 -1713 0
-1635 -1714 0
-1635 -1715 0
-1636 -1637 0
-1636 -1638 0
-1636 -1639 0
-1636 -1640 0
-1636 -1641 0
-1636 -1642 0
-1636 -1643 0
-1636 -1644 0
-1636 -1645 0
-1636 -1646 0
-1636 -1647 0
-1636 -1648 0
-1636 -1649 0
-1636 -1650 0
-1636 -1651 0
-1636 -1652 0
-1636 -1653 0
-1636 -1654 0
-1636 -1655 0
-1636 -1656 0
-1636 -1657 0
-1636 -1658 0
-1636 -1659 0
-1636 -1660 0
-1636 -1661 0
-1636 -1662 0
-1636 -1663 0
-1636 -1664 0
-1636 -1665 0
-1636 -1666 0
-1636 -1667 0
-1636 -1668 0
-1636 -1669 0
-1636 -1670 0
-1636 -1671 0
-1636 -1672 0
-1636 -1673 0
-1636 -1674 0
-1636 -1675 0
-1636 -1676 0
-1636 -1677 0
-1636 -1678 0
-1636 -1679 0
-1636 -1680 0
-1636 -1681 0
-1636 -1682 0
-1636 -1683 0
-1636 -1684 0
-1636 -1685 0
-1636 -1686 0
-1636 -1687 0
-1636 -1688 0
-1636 -1689 0
-1636 -1690 0
-1636 -1691 0
-1636 -1692 0
-1636 -1693 0
-1636 -1694 0
-1636 -1695 0
-1636 -1696 0
-1636 -1697 0
-1636 -1698 0
-1636 -1699 0
-1636 -1700 0
-1636 -1701 0
-1636 -1702 0
-1636 -1703 0
-1636 -1704 0
-1636 -1705 0
-1636 -1706 0
-1636 -1707 0
-1636 -1708 0
-1636 -1709 0
-1636 -1710 0
-1636 -1711 0
-1636 -1712 0
-1636 -1713 0
-1636 -1714 0
-1636 -1715 0
-1637 -1638 0
-1637 -1639 0
-1637 -1640 0
-1637 -1641 0
-1637 -1642 0
-1637 -1643 0
-1637 -1644 0
-1637 -1645 0
-1637 -1646 0
-1637 -1647 0
-1637 -1648 0
-1637 -1649 0
-1637 -1650 0
-1637 -1651 0
-1637 -1652 0
-1637 -1653 0
-1637 -1654 0
-1637 -1655 0
-1637 -1656 0
-1637 -1657 0
-1637 -1658 0
-1637 -1659 0
-1637 -1660 0
-1637 -1661 0
-1637 -1662 0
-1637 -1663 0
-1637 -1664 0
-1637 -1665 0
-1637 -1666 0
-1637 -1667 0
-1637 -1668 0
-1637 -1669 0
-1637 -1670 0
-1637 -1671 0
-1637 -1672 0
-1637 -1673 0
-1637 -1674 0
-1637 -1675 0
-1637 -1676 0
-1637 -1677 0
-1637 -1678 0
-1637 -1679 0
-1637 -1680 0
-1637 -1681 0
-1637 -1682 0
-1637 -1683 0
-1637 -1684 0
-1637 -1685 0
-1637 -1686 0
-1637 -1687 0
-1637 -1688 0
-1637 -1689 0
-1637 -1690 0
-1637 -1691 0
-1637 -1692 0
-1637 -1693 0
-1637 -1694 0
-1637 -1695 0
-1637 -1696 0
-1637 -1697 0
-1637 -1698 0
-1637 -1699 0
-1637 -1700 0
-1637 -1701 0
-1637 -1702 0
-1637 -1703 0
-1637 -1704 0
-1637 -1705 0
-1637 -1706 0
-1637 -1707 0
-1637 -1708 0
-1637 -1709 0
-1637 -1710 0
-1637 -1711 0
-1637 -1712 0
-1637 -1713 0
-1637 -1714 0
-1637 -1715 0
-1638 -1639 0
-1638 -1640 0
-1638 -1641 0
-1638 -1642 0
-1638 -1643 0
-1638 -1644 0
-1638 -1645 0
-1638 -1646 0
-1638 -1647 0
-1638 -1648 0
-1638 -1649 0
-1638 -1650 0
-1638 -1651 0
-1638 -1652 0
-1638 -1653 0
-1638 -1654 0
-1638 -1655 0
-1638 -1656 0
-1638 -1657 0
-1638 -1658 0
-1638 -1659 0
-1638 -1660 0
-1638 -1661 0
-1638 -1662 0
-1638 -1663 0
-1638 -1664 0
-1638 -1665 0
-1638 -1666 0
-1638 -1667 0
-1638 -1668 0
-1638 -1669 0
-1638 -1670 0
-1638 -1671 0
-1638 -1672 0
-1638 -1673 0
-1638 -1674 0
-1638 -1675 0
-1638 -1676 0
-1638 -1677 0
-1638 -1678 0
-1638 -1679 0
-1638 -1680 0
-1638 -1681 0
-1638 -1682 0
-1638 -1683 0
-1638 -1684 0
-1638 -1685 0
-1638 -1686 0
-1638 -1687 0
-1638 -1688 0
-1638 -1689 0
-1638 -1690 0
-1638 -1691 0
-1638 -1692 0
-1638 -1693 0
-1638 -1694 0
-1638 -1695 0
-1638 -1696 0
-1638 -1697 0
-1638 -1698 0
-1638 -1699 0
-1638 -1700 0
-1638 -1701 0
-1638 -1702 0
-1638 -1703 0
-1638 -1704 0
-1638 -1705 0
-1638 -1706 0
-1638 -1707 0
-1638 -1708 0
-1638 -1709 0
-1638 -1710 0
-1638 -1711 0
-1638 -1712 0
-1638 -1713 0
-1638 -1714 0
-1638 -1715 0
-1639 -1640 0
-1639 -1641 0
-1639 -1642 0
-1639 -1643 0
-1639 -1644 0
-1639 -1645 0
-1639 -1646 0
-1639 -1647 0
-1639 -1648 0
-1639 -1649 0
-1639 -1650 0
-1639 -1651 0
-1639 -1652 0
-1639 -1653 0
-1639 -1654 0
-1639 -1655 0
-1639 -1656 0
-1639 -1657 0
-1639 -1658 0
-1639 -1659 0
-1639 -1660 0
-1639 -1661 0
-1639 -1662 0
-1639 -1663 0
-1639 -1664 0
-1639 -1665 0
-1639 -1666 0
-1639 -1667 0
-1639 -1668 0
-1639 -1669 0
-1639 -1670 0
-1639 -1671 0
-1639 -1672 0
-1639 -1673 0
-1639 -1674 0
-1639 -1675 0
-1639 -1676 0
-1639 -1677 0
-1639 -1678 0
-1639 -1679 0
-1639 -1680 0
-1639 -1681 0
-1639 -1682 0
-1639 -1683 0
-1639 -1684 0
-1639 -1685 0
-1639 -1686 0
-1639 -1687 0
-1639 -1688 0
-1639 -1689 0
-1639 -1690 0
-1639 -1691 0
-1639 -1692 0
-1639 -1693 0
-1639 -1694 0
-1639 -1695 0
-1639 -1696 0
-1639 -1697 0
-1639 -1698 0
-1639 -1699 0
-1639 -1700 0
-1639 -1701 0
-1639 -1702 0
-1639 -1703 0
-1639 -1704 0
-1639 -1705 0
-1639 -1706 0
-1639 -1707 0
-1639 -1708 0
-1639 -1709 0
-1639 -1710 0
-1639 -1711 0
-1639 -1712 0
-1639 -1713 0
-1639 -1714 0
-1639 -1715 0
-1640 -1641 0
-1640 -1642 0
-1640 -1643 0
-1640 -1644 0
-1640 -1645 0
-1640 -1646 0
-1640 -1647 0
-1640 -1648 0
-1640 -1649 0
-1640 -1650 0
-1640 -1651 0
-1640 -1652 0
-1640 -1653 0
-1640 -1654 0
-1640 -1655 0
-1640 -1656 0
-1640 -1657 0
-1640 -1658 0
-1640 -1659 0
-1640 -1660 0
-1640 -1661 0
-1640 -1662 0
-1640 -1663 0
-1640 -1664 0
-1640 -1665 0
-1640 -1666 0
-1640 -1667 0
-1640 -1668 0
-1640 -1669 0
-1640 -1670 0
-1640 -1671 0
-1640 -1672 0
-1640 -1673 0
-1640 -1674 0
-1640 -1675 0
-1640 -1676 0
-1640 -1677 0
-1640 -1678 0
-1640 -1679 0
-1640 -1680 0
-1640 -1681 0
-1640 -1682 0
-1640 -1683 0
-1640 -1684 0
-1640 -1685 0
-1640 -1686 0
-1640 -1687 0
-1640 -1688 0
-1640 -1689 0
-1640 -1690 0
-1640 -1691 0
-1640 -1692 0
-1640 -1693 0
-1640 -1694 0
-1640 -1695 0
-1640 -1696 0
-1640 -1697 0
-1640 -1698 0
-1640 -1699 0
-1640 -1700 0
-1640 -1701 0
-1640 -1702 0
-1640 -1703 0
-1640 -1704 0
-1640 -1705 0
-1640 -1706 0
-1640 -1707 0
-1640 -1708 0
-1640 -1709 0
-1640 -1710 0
-1640 -1711 0
-1640 -1712 0
-1640 -1713 0
-1640 -1714 0
-1640 -1715 0
-1641 -1642 0
-1641 -1643 0
-1641 -1644 0
-1641 -1645 0
-1641 -1646 0
-1641 -1647 0
-1641 -1648 0
-1641 -1649 0
-1641 -1650 0
-1641 -1651 0
-1641 -1652 0
-1641 -1653 0
-1641 -1654 0
-1641 -1655 0
-1641 -1656 0
-1641 -1657 0
-1641 -1658 0
-1641 -1659 0
-1641 -1660 0
-1641 -1661 0
-1641 -1662 0
-1641 -1663 0
-1641 -1664 0
-1641 -1665 0
-1641 -1666 0
-1641 -1667 0
-1641 -1668 0
-1641 -1669 0
-1641 -1670 0
-1641 -1671 0
-1641 -1672 0
-1641 -1673 0
-1641 -1674 0
-1641 -1675 0
-1641 -1676 0
-1641 -1677 0
-1641 -1678 0
-1641 -1679 0
-1641 -1680 0
-1641 -1681 0
-1641 -1682 0
-1641 -1683 0
-1641 -1684 0
-1641 -1685 0
-1641 -1686 0
-1641 -1687 0
-1641 -1688 0
-1641 -1689 0
-1641 -1690 0
-1641 -1691 0
-1641 -1692 0
-1641 -1693 0
-1641 -1694 0
-1641 -1695 0
-1641 -1696 0
-1641 -1697 0
-1641 -1698 0
-1641 -1699 0
-1641 -1700 0
-1641 -1701 0
-1641 -1702 0
-1641 -1703 0
-1641 -1704 0
-1641 -1705 0
-1641 -1706 0
-1641 -1707 0
-1641 -1708 0
-1641 -1709 0
-1641 -1710 0
-1641 -1711 0
-1641 -1712 0
-1641 -1713 0
-1641 -1714 0
-1641 -1715 0
-1642 -1643 0
-1642 -1644 0
-1642 -1645 0
-1642 -1646 0
-1642 -1647 0
-1642 -1648 0
-1642 -1649 0
-1642 -1650 0
-1642 -1651 0
-1642 -1652 0
-1642 -1653 0
-1642 -1654 0
-1642 -1655 0
-1642 -1656 0
-1642 -1657 0
-1642 -1658 0
-1642 -1659 0
-1642 -1660 0
-1642 -1661 0
-1642 -1662 0
-1642 -1663 0
-1642 -1664 0
-1642 -1665 0
-1642 -1666 0
-1642 -1667 0
-1642 -1668 0
-1642 -1669 0
-1642 -1670 0
-1642 -1671 0
-1642 -1672 0
-1642 -1673 0
-1642 -1674 0
-1642 -1675 0
-1642 -1676 0
-1642 -1677 0
-1642 -1678 0
-1642 -1679 0
-1642 -1680 0
-1642 -1681 0
-1642 -1682 0
-1642 -1683 0
-1642 -1684 0
-1642 -1685 0
-1642 -1686 0
-1642 -1687 0
-1642 -1688 0
-1642 -1689 0
-1642 -1690 0
-1642 -1691 0
-1642 -1692 0
-1642 -1693 0
-1642 -1694 0
-1642 -1695 0
-1642 -1696 0
-1642 -1697 0
-1642 -1698 0
-1642 -1699 0
-1642 -1700 0
-1642 -1701 0
-1642 -1702 0
-1642 -1703 0
-1642 -1704 0
-1642 -1705 0
-1642 -1706 0
-1642 -1707 0
-1642 -1708 0
-1642 -1709 0
-1642 -1710 0
-1642 -1711 0
-1642 -1712 0
-1642 -1713 0
-1642 -1714 0
-1642 -1715 0
-1643 -1644 0
-1643 -1645 0
-1643 -1646 0
-1643 -1647 0
-1643 -1648 0
-1643 -1649 0
-1643 -1650 0
-1643 -1651 0
-1643 -1652 0
-1643 -1653 0
-1643 -1654 0
-1643 -1655 0
-1643 -1656 0
-1643 -1657 0
-1643 -1658 0
-1643 -1659 0
-1643 -1660 0
-1643 -1661 0
-1643 -1662 0
-1643 -1663 0
-1643 -1664 0
-1643 -1665 0
-1643 -1666 0
-1643 -1667 0
-1643 -1668 0
-1643 -1669 0
-1643 -1670 0
-1643 -1671 0
-1643 -1672 0
-1643 -1673 0
-1643 -1674 0
-1643 -1675 0
-1643 -1676 0
-1643 -1677 0
-1643 -1678 0
-1643 -1679 0
-1643 -1680 0
-1643 -1681 0
-1643 -1682 0
-1643 -1683 0
-1643 -1684 0
-1643 -1685 0
-1643 -1686 0
-1643 -1687 0
-1643 -1688 0
-1643 -1689 0
-1643 -1690 0
-1643 -1691 0
-1643 -1692 0
-1643 -1693 0
-1643 -1694 0
-1643 -1695 0
-1643 -1696 0
-1643 -1697 0
-1643 -1698 0
-1643 -1699 0
-1643 -1700 0
-1643 -1701 0
-1643 -1702 0
-1643 -1703 0
-1643 -1704 0
-1643 -1705 0
-1643 -1706 0
-1643 -1707 0
-1643 -1708 0
-1643 -1709 0
-1643 -1710 0
-1643 -1711 0
-1643 -1712 0
-1643 -1713 0
-1643 -1714 0
-1643 -1715 0
-1644 -1645 0
-1644 -1646 0
-1644 -1647 0
-1644 -1648 0
-1644 -1649 0
-1644 -1650 0
-1644 -1651 0
-1644 -1652 0
-1644 -1653 0
-1644 -1654 0
-1644 -1655 0
-1644 -1656 0
-1644 -1657 0
-1644 -1658 0
-1644 -1659 0
-1644 -1660 0
-1644 -1661 0
-1644 -1662 0
-1644 -1663 0
-1644 -1664 0
-1644 -1665 0
-1644 -1666 0
-1644 -1667 0
-1644 -1668 0
-1644 -1669 0
-1644 -1670 0
-1644 -1671 0
-1644 -1672 0
-1644 -1673 0
-1644 -1674 0
-1644 -1675 0
-1644 -1676 0
-1644 -1677 0
-1644 -1678 0
-1644 -1679 0
-1644 -1680 0
-1644 -1681 0
-1644 -1682 0
-1644 -1683 0
-1644 -1684 0
-1644 -1685 0
-1644 -1686 0
-1644 -1687 0
-1644 -1688 0
-1644 -1689 0
-1644 -1690 0
-1644 -1691 0
-1644 -1692 0
-1644 -1693 0
-1644 -1694 0
-1644 -1695 0
-1644 -1696 0
-1644 -1697 0
-1644 -1698 0
-1644 -1699 0
-1644 -1700 0
-1644 -1701 0
-1644 -1702 0
-1644 -1703 0
-1644 -1704 0
-1644 -1705 0
-1644 -1706 0
-1644 -1707 0
-1644 -1708 0
-1644 -1709 0
-1644 -1710 0
-1644 -1711 0
-1644 -1712 0
-1644 -1713 0
-1644 -1714 0
-1644 -1715 0
-1645 -1646 0
-1645 -1647 0
-1645 -1648 0
-1645 -1649 0
-1645 -1650 0
-1645 -1651 0
-1645 -1652 0
-1645 -1653 0
-1645 -1654 0
-1645 -1655 0
-1645 -1656 0
-1645 -1657 0
-1645 -1658 0
-1645 -1659 0
-1645 -1660 0
-1645 -1661 0
-1645 -1662 0
-1645 -1663 0
-1645 -1664 0
-1645 -1665 0
-1645 -1666 0
-1645 -1667 0
-1645 -1668 0
-1645 -1669 0
-1645 -1670 0
-1645 -1671 0
-1645 -1672 0
-1645 -1673 0
-1645 -1674 0
-1645 -1675 0
-1645 -1676 0
-1645 -1677 0
-1645 -1678 0
-1645 -1679 0
-1645 -1680 0
-1645 -1681 0
-1645 -1682 0
-1645 -1683 0
-1645 -1684 0
-1645 -1685 0
-1645 -1686 0
-1645 -1687 0
-1645 -1688 0
-1645 -1689 0
-1645 -1690 0
-1645 -1691 0
-1645 -1692 0
-1645 -1693 0
-1645 -1694 0
-1645 -1695 0
-1645 -1696 0
-1645 -1697 0
-1645 -1698 0
-1645 -1699 0
-1645 -1700 0
-1645 -1701 0
-1645 -1702 0
-1645 -1703 0
-1645 -1704 0
-1645 -1705 0
-1645 -1706 0
-1645 -1707 0
-1645 -1708 0
-1645 -1709 0
-1645 -1710 0
-1645 -1711 0
-1645 -1712 0
-1645 -1713 0
-1645 -1714 0
-1645 -1715 0
-1646 -1647 0
-1646 -1648 0
-1646 -1649 0
-1646 -1650 0
-1646 -1651 0
-1646 -1652 0
-1646 -1653 0
-1646 -1654 0
-1646 -1655 0
-1646 -1656 0
-1646 -1657 0
-1646 -1658 0
-1646 -1659 0
-1646 -1660 0
-1646 -1661 0
-1646 -1662 0
-1646 -1663 0
-1646 -1664 0
-1646 -1665 0
-1646 -1666 0
-1646 -1667 0
-1646 -1668 0
-1646 -1669 0
-1646 -1670 0
-1646 -1671 0
-1646 -1672 0
-1646 -1673 0
-1646 -1674 0
-1646 -1675 0
-1646 -1676 0
-1646 -1677 0
-1646 -1678 0
-1646 -1679 0
-1646 -1680 0
-1646 -1681 0
-1646 -1682 0
-1646 -1683 0
-1646 -1684 0
-1646 -1685 0
-1646 -1686 0
-1646 -1687 0
-1646 -1688 0
-1646 -1689 0
-1646 -1690 0
-1646 -1691 0
-1646 -1692 0
-1646 -1693 0
-1646 -1694 0
-1646 -1695 0
-1646 -1696 0
-1646 -1697 0
-1646 -1698 0
-1646 -1699 0
-1646 -1700 0
-1646 -1701 0
-1646 -1702 0
-1646 -1703 0
-1646 -1704 0
-1646 -1705 0
-1646 -1706 0
-1646 -1707 0
-1646 -1708 0
-1646 -1709 0
-1646 -1710 0
-1646 -1711 0
-1646 -1712 0
-1646 -1713 0
-1646 -1714 0
-1646 -1715 0
-1647 -1648 0
-1647 -1649 0
-1647 -1650 0
-1647 -1651 0
-1647 -1652 0
-1647 -1653 0
-1647 -1654 0
-1647 -1655 0
-1647 -1656 0
-1647 -1657 0
-1647 -1658 0
-1647 -1659 0
-1647 -1660 0
-1647 -1661 0
-1647 -1662 0
-1647 -1663 0
-1647 -1664 0
-1647 -1665 0
-1647 -1666 0
-1647 -1667 0
-1647 -1668 0
-1647 -1669 0
-1647 -1670 0
-1647 -1671 0
-1647 -1672 0
-1647 -1673 0
-1647 -1674 0
-1647 -1675 0
-1647 -1676 0
-1647 -1677 0
-1647 -1678 0
-1647 -1679 0
-1647 -1680 0
-1647 -1681 0
-1647 -1682 0
-1647 -1683 0
-1647 -1684 0
-1647 -1685 0
-1647 -1686 0
-1647 -1687 0
-1647 -1688 0
-1647 -1689 0
-1647 -1690 0
-1647 -1691 0
-1647 -1692 0
-1647 -1693 0
-1647 -1694 0
-1647 -1695 0
-1647 -1696 0
-1647 -1697 0
-1647 -1698 0
-1647 -1699 0
-1647 -1700 0
-1647 -1701 0
-1647 -1702 0
-1647 -1703 0
-1647 -1704 0
-1647 -1705 0
-1647 -1706 0
-1647 -1707 0
-1647 -1708 0
-1647 -1709 0
-1647 -1710 0
-1647 -1711 0
-1647 -1712 0
-1647 -1713 0
-1647 -1714 0
-1647 -1715 0
-1648 -1649 0
-1648 -1650 0
-1648 -1651 0
-1648 -1652 0
-1648 -1653 0
-1648 -1654 0
-1648 -1655 0
-1648 -1656 0
-1648 -1657 0
-1648 -1658 0
-1648 -1659 0
-1648 -1660 0
-1648 -1661 0
-1648 -1662 0
-1648 -1663 0
-1648 -1664 0
-1648 -1665 0
-1648 -1666 0
-1648 -1667 0
-1648 -1668 0
-1648 -1669 0
-1648 -1670 0
-1648 -1671 0
-1648 -1672 0
-1648 -1673 0
-1648 -1674 0
-1648 -1675 0
-1648 -1676 0
-1648 -1677 0
-1648 -1678 0
-1648 -1679 0
-1648 -1680 0
-1648 -1681 0
-1648 -1682 0
-1648 -1683 0
-1648 -1684 0
-1648 -1685 0
-1648 -1686 0
-1648 -1687 0
-1648 -1688 0
-1648 -1689 0
-1648 -1690 0
-1648 -1691 0
-1648 -1692 0
-1648 -1693 0
-1648 -1694 0
-1648 -1695 0
-1648 -1696 0
-1648 -1697 0
-1648 -1698 0
-1648 -1699 0
-1648 -1700 0
-1648 -1701 0
-1648 -1702 0
-1648 -1703 0
-1648 -1704 0
-1648 -1705 0
-1648 -1706 0
-1648 -1707 0
-1648 -1708 0
-1648 -1709 0
-1648 -1710 0
-1648 -1711 0
-1648 -1712 0
-1648 -1713 0
-1648 -1714 0
-1648 -1715 0
-1649 -1650 0
-1649 -1651 0
-1649 -1652 0
-1649 -1653 0
-1649 -1654 0
-1649 -1655 0
-1649 -1656 0
-1649 -1657 0
-1649 -1658 0
-1649 -1659 0
-1649 -1660 0
-1649 -1661 0
-1649 -1662 0
-1649 -1663 0
-1649 -1664 0
-1649 -1665 0
-1649 -1666 0
-1649 -1667 0
-1649 -1668 0
-1649 -1669 0
-1649 -1670 0
-1649 -1671 0
-1649 -1672 0
-1649 -1673 0
-1649 -1674 0
-1649 -1675 0
-1649 -1676 0
-1649 -1677 0
-1649 -1678 0
-1649 -1679 0
-1649 -1680 0
-1649 -1681 0
-1649 -1682 0
-1649 -1683 0
-1649 -1684 0
-1649 -1685 0
-1649 -1686 0
-1649 -1687 0
-1649 -1688 0
-1649 -1689 0
-1649 -1690 0
-1649 -1691 0
-1649 -1692 0
-1649 -1693 0
-1649 -1694 0
-1649 -1695 0
-1649 -1696 0
-1649 -1697 0
-1649 -1698 0
-1649 -1699 0
-1649 -1700 0
-1649 -1701 0
-1649 -1702 0
-1649 -1703 0
-1649 -1704 0
-1649 -1705 0
-1649 -1706 0
-1649 -1707 0
-1649 -1708 0
-1649 -1709 0
-1649 -1710 0
-1649 -1711 0
-1649 -1712 0
-1649 -1713 0
-1649 -1714 0
-1649 -1715 0
-1650 -1651 0
-1650 -1652 0
-1650 -1653 0
-1650 -1654 0
-1650 -1655 0
-1650 -1656 0
-1650 -1657 0
-1650 -1658 0
-1650 -1659 0
-1650 -1660 0
-1650 -1661 0
-1650 -1662 0
-1650 -1663 0
-1650 -1664 0
-1650 -1665 0
-1650 -1666 0
-1650 -1667 0
-1650 -1668 0
-1650 -1669 0
-1650 -1670 0
-1650 -1671 0
-1650 -1672 0
-1650 -1673 0
-1650 -1674 0
-1650 -1675 0
-1650 -1676 0
-1650 -1677 0
-1650 -1678 0
-1650 -1679 0
-1650 -1680 0
-1650 -1681 0
-1650 -1682 0
-1650 -1683 0
-1650 -1684 0
-1650 -1685 0
-1650 -1686 0
-1650 -1687 0
-1650 -1688 0
-1650 -1689 0
-1650 -1690 0
-1650 -1691 0
-1650 -1692 0
-1650 -1693 0
-1650 -1694 0
-1650 -1695 0
-1650 -1696 0
-1650 -1697 0
-1650 -1698 0
-1650 -1699 0
-1650 -1700 0
-1650 -1701 0
-1650 -1702 0
-1650 -1703 0
-1650 -1704 0
-1650 -1705 0
-1650 -1706 0
-1650 -1707 0
-1650 -1708 0
-1650 -1709 0
-1650 -1710 0
-1650 -1711 0
-1650 -1712 0
-1650 -1713 0
-1650 -1714 0
-1650 -1715 0
-1651 -1652 0
-1651 -1653 0
-1651 -1654 0
-1651 -1655 0
-1651 -1656 0
-1651 -1657 0
-1651 -1658 0
-1651 -1659 0
-1651 -1660 0
-1651 -1661 0
-1651 -1662 0
-1651 -1663 0
-1651 -1664 0
-1651 -1665 0
-1651 -1666 0
-1651 -1667 0
-1651 -1668 0
-1651 -1669 0
-1651 -1670 0
-1651 -1671 0
-1651 -1672 0
-1651 -1673 0
-1651 -1674 0
-1651 -1675 0
-1651 -1676 0
-1651 -1677 0
-1651 -1678 0
-1651 -1679 0
-1651 -1680 0
-1651 -1681 0
-1651 -1682 0
-1651 -1683 0
-1651 -1684 0
-1651 -1685 0
-1651 -1686 0
-1651 -1687 0
-1651 -1688 0
-1651 -1689 0
-1651 -1690 0
-1651 -1691 0
-1651 -1692 0
-1651 -1693 0
-1651 -1694 0
-1651 -1695 0
-1651 -1696 0
-1651 -1697 0
-1651 -1698 0
-1651 -1699 0
-1651 -1700 0
-1651 -1701 0
-1651 -1702 0
-1651 -1703 0
-1651 -1704 0
-1651 -1705 0
-1651 -1706 0
-1651 -1707 0
-1651 -1708 0
-1651 -1709 0
-1651 -1710 0
-1651 -1711 0
-1651 -1712 0
-1651 -1713 0
-1651 -1714 0
-1651 -1715 0
-1652 -1653 0
-1652 -1654 0
-1652 -1655 0
-1652 -1656 0
-1652 -1657 0
-1652 -1658 0
-1652 -1659 0
-1652 -1660 0
-1652 -1661 0
-1652 -1662 0
-1652 -1663 0
-1652 -1664 0
-1652 -1665 0
-1652 -1666 0
-1652 -1667 0
-1652 -1668 0
-1652 -1669 0
-1652 -1670 0
-1652 -1671 0
-1652 -1672 0
-1652 -1673 0
-1652 -1674 0
-1652 -1675 0
-1652 -1676 0
-1652 -1677 0
-1652 -1678 0
-1652 -1679 0
-1652 -1680 0
-1652 -1681 0
-1652 -1682 0
-1652 -1683 0
-1652 -1684 0
-1652 -1685 0
-1652 -1686 0
-1652 -1687 0
-1652 -1688 0
-1652 -1689 0
-1652 -1690 0
-1652 -1691 0
-1652 -1692 0
-1652 -1693 0
-1652 -1694 0
-1652 -1695 0
-1652 -1696 0
-1652 -1697 0
-1652 -1698 0
-1652 -1699 0
-1652 -1700 0
-1652 -1701 0
-1652 -1702 0
-1652 -1703 0
-1652 -1704 0
-1652 -1705 0
-1652 -1706 0
-1652 -1707 0
-1652 -1708 0
-1652 -1709 0
-1652 -1710 0
-1652 -1711 0
-1652 -1712 0
-1652 -1713 0
-1652 -1714 0
-1652 -1715 0
-1653 -1654 0
-1653 -1655 0
-1653 -1656 0
-1653 -1657 0
-1653 -1658 0
-1653 -1659 0
-1653 -1660 0
-1653 -1661 0
-1653 -1662 0
-1653 -1663 0
-1653 -1664 0
-1653 -1665 0
-1653 -1666 0
-1653 -1667 0
-1653 -1668 0
-1653 -1669 0
-1653 -1670 0
-1653 -1671 0
-1653 -1672 0
-1653 -1673 0
-1653 -1674 0
-1653 -1675 0
-1653 -1676 0
-1653 -1677 0
-1653 -1678 0
-1653 -1679 0
-1653 -1680 0
-1653 -1681 0
-1653 -1682 0
-1653 -1683 0
-1653 -1684 0
-1653 -1685 0
-1653 -1686 0
-1653 -1687 0
-1653 -1688 0
-1653 -1689 0
-1653 -1690 0
-1653 -1691 0
-1653 -1692 0
-1653 -1693 0
-1653 -1694 0
-1653 -1695 0
-1653 -1696 0
-1653 -1697 0
-1653 -1698 0
-1653 -1699 0
-1653 -1700 0
-1653 -1701 0
-1653 -1702 0
-1653 -1703 0
-1653 -1704 0
-1653 -1705 0
-1653 -1706 0
-1653 -1707 0
-1653 -1708 0
-1653 -1709 0
-1653 -1710 0
-1653 -1711 0
-1653 -1712 0
-1653 -1713 0
-1653 -1714 0
-1653 -1715 0
-1654 -1655 0
-1654 -1656 0
-1654 -1657 0
-1654 -1658 0
-1654 -1659 0
-1654 -1660 0
-1654 -1661 0
-1654 -1662 0
-1654 -1663 0
-1654 -1664 0
-1654 -1665 0
-1654 -1666 0
-1654 -1667 0
-1654 -1668 0
-1654 -1669 0
-1654 -1670 0
-1654 -1671 0
-1654 -1672 0
-1654 -1673 0
-1654 -1674 0
-1654 -1675 0
-1654 -1676 0
-1654 -1677 0
-1654 -1678 0
-1654 -1679 0
-1654 -1680 0
-1654 -1681 0
-1654 -1682 0
-1654 -1683 0
-1654 -1684 0
-1654 -1685 0
-1654 -1686 0
-1654 -1687 0
-1654 -1688 0
-1654 -1689 0
-1654 -1690 0
-1654 -1691 0
-1654 -1692 0
-1654 -1693 0
-1654 -1694 0
-1654 -1695 0
-1654 -1696 0
-1654 -1697 0
-1654 -1698 0
-1654 -1699 0
-1654 -1700 0
-1654 -1701 0
-1654 -1702 0
-1654 -1703 0
-1654 -1704 0
-1654 -1705 0
-1654 -1706 0
-1654 -1707 0
-1654 -1708 0
-1654 -1709 0
-1654 -1710 0
-1654 -1711 0
-1654 -1712 0
-1654 -1713 0
-1654 -1714 0
-1654 -1715 0
-1655 -1656 0
-1655 -1657 0
-1655 -1658 0
-1655 -1659 0
-1655 -1660 0
-1655 -1661 0
-1655 -1662 0
-1655 -1663 0
-1655 -1664 0
-1655 -1665 0
-1655 -1666 0
-1655 -1667 0
-1655 -1668 0
-1655 -1669 0
-1655 -1670 0
-1655 -1671 0
-1655 -1672 0
-1655 -1673 0
-1655 -1674 0
-1655 -1675 0
-1655 -1676 0
-1655 -1677 0
-1655 -1678 0
-1655 -1679 0
-1655 -1680 0
-1655 -1681 0
-1655 -1682 0
-1655 -1683 0
-1655 -1684 0
-1655 -1685 0
-1655 -1686 0
-1655 -1687 0
-1655 -1688 0
-1655 -1689 0
-1655 -1690 0
-1655 -1691 0
-1655 -1692 0
-1655 -1693 0
-1655 -1694 0
-1655 -1695 0
-1655 -1696 0
-1655 -1697 0
-1655 -1698 0
-1655 -1699 0
-1655 -1700 0
-1655 -1701 0
-1655 -1702 0
-1655 -1703 0
-1655 -1704 0
-1655 -1705 0
-1655 -1706 0
-1655 -1707 0
-1655 -1708 0
-1655 -1709 0
-1655 -1710 0
-1655 -1711 0
-1655 -1712 0
-1655 -1713 0
-1655 -1714 0
-1655 -1715 0
-1656 -1657 0
-1656 -1658 0
-1656 -1659 0
-1656 -1660 0
-1656 -1661 0
-1656 -1662 0
-1656 -1663 0
-1656 -1664 0
-1656 -1665 0
-1656 -1666 0
-1656 -1667 0
-1656 -1668 0
-1656 -1669 0
-1656 -1670 0
-1656 -1671 0
-1656 -1672 0
-1656 -1673 0
-1656 -1674 0
-1656 -1675 0
-1656 -1676 0
-1656 -1677 0
-1656 -1678 0
-1656 -1679 0
-1656 -1680 0
-1656 -1681 0
-1656 -1682 0
-1656 -1683 0
-1656 -1684 0
-1656 -1685 0
-1656 -1686 0
-1656 -1687 0
-1656 -1688 0
-1656 -1689 0
-1656 -1690 0
-1656 -1691 0
-1656 -1692 0
-1656 -1693 0
-1656 -1694 0
-1656 -1695 0
-1656 -1696 0
-1656 -1697 0
-1656 -1698 0
-1656 -1699 0
-1656 -1700 0
-1656 -1701 0
-1656 -1702 0
-1656 -1703 0
-1656 -1704 0
-1656 -1705 0
-1656 -1706 0
-1656 -1707 0
-1656 -1708 0
-1656 -1709 0
-1656 -1710 0
-1656 -1711 0
-1656 -1712 0
-1656 -1713 0
-1656 -1714 0
-1656 -1715 0
-1657 -1658 0
-1657 -1659 0
-1657 -1660 0
-1657 -1661 0
-1657 -1662 0
-1657 -1663 0
-1657 -1664 0
-1657 -1665 0
-1657 -1666 0
-1657 -1667 0
-1657 -1668 0
-1657 -1669 0
-1657 -1670 0
-1657 -1671 0
-1657 -1672 0
-1657 -1673 0
-1657 -1674 0
-1657 -1675 0
-1657 -1676 0
-1657 -1677 0
-1657 -1678 0
-1657 -1679 0
-1657 -1680 0
-1657 -1681 0
-1657 -1682 0
-1657 -1683 0
-1657 -1684 0
-1657 -1685 0
-1657 -1686 0
-1657 -1687 0
-1657 -1688 0
-1657 -1689 0
-1657 -1690 0
-1657 -1691 0
-1657 -1692 0
-1657 -1693 0
-1657 -1694 0
-1657 -1695 0
-1657 -1696 0
-1657 -1697 0
-1657 -1698 0
-1657 -1699 0
-1657 -1700 0
-1657 -1701 0
-1657 -1702 0
-1657 -1703 0
-1657 -1704 0
-1657 -1705 0
-1657 -1706 0
-1657 -1707 0
-1657 -1708 0
-1657 -1709 0
-1657 -1710 0
-1657 -1711 0
-1657 -1712 0
-1657 -1713 0
-1657 -1714 0
-1657 -1715 0
-1658 -1659 0
-1658 -1660 0
-1658 -1661 0
-1658 -1662 0
-1658 -1663 0
-1658 -1664 0
-1658 -1665 0
-1658 -1666 0
-1658 -1667 0
-1658 -1668 0
-1658 -1669 0
-1658 -1670 0
-1658 -1671 0
-1658 -1672 0
-1658 -1673 0
-1658 -1674 0
-1658 -1675 0
-1658 -1676 0
-1658 -1677 0
-1658 -1678 0
-1658 -1679 0
-1658 -1680 0
-1658 -1681 0
-1658 -1682 0
-1658 -1683 0
-1658 -1684 0
-1658 -1685 0
-1658 -1686 0
-1658 -1687 0
-1658 -1688 0
-1658 -1689 0
-1658 -1690 0
-1658 -1691 0
-1658 -1692 0
-1658 -1693 0
-1658 -1694 0
-1658 -1695 0
-1658 -1696 0
-1658 -1697 0
-1658 -1698 0
-1658 -1699 0
-1658 -1700 0
-1658 -1701 0
-1658 -1702 0
-1658 -1703 0
-1658 -1704 0
-1658 -1705 0
-1658 -1706 0
-1658 -1707 0
-1658 -1708 0
-1658 -1709 0
-1658 -1710 0
-1658 -1711 0
-1658 -1712 0
-1658 -1713 0
-1658 -1714 0
-1658 -1715 0
-1659 -1660 0
-1659 -1661 0
-1659 -1662 0
-1659 -1663 0
-1659 -1664 0
-1659 -1665 0
-1659 -1666 0
-1659 -1667 0
-1659 -1668 0
-1659 -1669 0
-1659 -1670 0
-1659 -1671 0
-1659 -1672 0
-1659 -1673 0
-1659 -1674 0
-1659 -1675 0
-1659 -1676 0
-1659 -1677 0
-1659 -1678 0
-1659 -1679 0
-1659 -1680 0
-1659 -1681 0
-1659 -1682 0
-1659 -1683 0
-1659 -1684 0
-1659 -1685 0
-1659 -1686 0
-1659 -1687 0
-1659 -1688 0
-1659 -1689 0
-1659 -1690 0
-1659 -1691 0
-1659 -1692 0
-1659 -1693 0
-1659 -1694 0
-1659 -1695 0
-1659 -1696 0
-1659 -1697 0
-1659 -1698 0
-1659 -1699 0
-1659 -1700 0
-1659 -1701 0
-1659 -1702 0
-1659 -1703 0
-1659 -1704 0
-1659 -1705 0
-1659 -1706 0
-1659 -1707 0
-1659 -1708 0
-1659 -1709 0
-1659 -1710 0
-1659 -1711 0
-1659 -1712 0
-1659 -1713 0
-1659 -1714 0
-1659 -1715 0
-1660 -1661 0
-1660 -1662 0
-1660 -1663 0
-1660 -1664 0
-1660 -1665 0
-1660 -1666 0
-1660 -1667 0
-1660 -1668 0
-1660 -1669 0
-1660 -1670 0
-1660 -1671 0
-1660 -1672 0
-1660 -1673 0
-1660 -1674 0
-1660 -1675 0
-1660 -1676 0
-1660 -1677 0
-1660 -1678 0
-1660 -1679 0
-1660 -1680 0
-1660 -1681 0
-1660 -1682 0
-1660 -1683 0
-1660 -1684 0
-1660 -1685 0
-1660 -1686 0
-1660 -1687 0
-1660 -1688 0
-1660 -1689 0
-1660 -1690 0
-1660 -1691 0
-1660 -1692 0
-1660 -1693 0
-1660 -1694 0
-1660 -1695 0
-1660 -1696 0
-1660 -1697 0
-1660 -1698 0
-1660 -1699 0
-1660 -1700 0
-1660 -1701 0
-1660 -1702 0
-1660 -1703 0
-1660 -1704 0
-1660 -1705 0
-1660 -1706 0
-1660 -1707 0
-1660 -1708 0
-1660 -1709 0
-1660 -1710 0
-1660 -1711 0
-1660 -1712 0
-1660 -1713 0
-1660 -1714 0
-1660 -1715 0
-1661 -1662 0
-1661 -1663 0
-1661 -1664 0
-1661 -1665 0
-1661 -1666 0
-1661 -1667 0
-1661 -1668 0
-1661 -1669 0
-1661 -1670 0
-1661 -1671 0
-1661 -1672 0
-1661 -1673 0
-1661 -1674 0
-1661 -1675 0
-1661 -1676 0
-1661 -1677 0
-1661 -1678 0
-1661 -1679 0
-1661 -1680 0
-1661 -1681 0
-1661 -1682 0
-1661 -1683 0
-1661 -1684 0
-1661 -1685 0
-1661 -1686 0
-1661 -1687 0
-1661 -1688 0
-1661 -1689 0
-1661 -1690 0
-1661 -1691 0
-1661 -1692 0
-1661 -1693 0
-1661 -1694 0
-1661 -1695 0
-1661 -1696 0
-1661 -1697 0
-1661 -1698 0
-1661 -1699 0
-1661 -1700 0
-1661 -1701 0
-1661 -1702 0
-1661 -1703 0
-1661 -1704 0
-1661 -1705 0
-1661 -1706 0
-1661 -1707 0
-1661 -1708 0
-1661 -1709 0
-1661 -1710 0
-1661 -1711 0
-1661 -1712 0
-1661 -1713 0
-1661 -1714 0
-1661 -1715 0
-1662 -1663 0
-1662 -1664 0
-1662 -1665 0
-1662 -1666 0
-1662 -1667 0
-1662 -1668 0
-1662 -1669 0
-1662 -1670 0
-1662 -1671 0
-1662 -1672 0
-1662 -1673 0
-1662 -1674 0
-1662 -1675 0
-1662 -1676 0
-1662 -1677 0
-1662 -1678 0
-1662 -1679 0
-1662 -1680 0
-1662 -1681 0
-1662 -1682 0
-1662 -1683 0
-1662 -1684 0
-1662 -1685 0
-1662 -1686 0
-1662 -1687 0
-1662 -1688 0
-1662 -1689 0
-1662 -1690 0
-1662 -1691 0
-1662 -1692 0
-1662 -1693 0
-1662 -1694 0
-1662 -1695 0
-1662 -1696 0
-1662 -1697 0
-1662 -1698 0
-1662 -1699 0
-1662 -1700 0
-1662 -1701 0
-1662 -1702 0
-1662 -1703 0
-1662 -1704 0
-1662 -1705 0
-1662 -1706 0
-1662 -1707 0
-1662 -1708 0
-1662 -1709 0
-1662 -1710 0
-1662 -1711 0
-1662 -1712 0
-1662 -1713 0
-1662 -1714 0
-1662 -1715 0
-1663 -1664 0
-1663 -1665 0
-1663 -1666 0
-1663 -1667 0
-1663 -1668 0
-1663 -1669 0
-1663 -1670 0
-1663 -1671 0
-1663 -1672 0
-1663 -1673 0
-1663 -1674 0
-1663 -1675 0
-1663 -1676 0
-1663 -1677 0
-1663 -1678 0
-1663 -1679 0
-1663 -1680 0
-1663 -1681 0
-1663 -1682 0
-1663 -1683 0
-1663 -1684 0
-1663 -1685 0
-1663 -1686 0
-1663 -1687 0
-1663 -1688 0
-1663 -1689 0
-1663 -1690 0
-1663 -1691 0
-1663 -1692 0
-1663 -1693 0
-1663 -1694 0
-1663 -1695 0
-1663 -1696 0
-1663 -1697 0
-1663 -1698 0
-1663 -1699 0
-1663 -1700 0
-1663 -1701 0
-1663 -1702 0
-1663 -1703 0
-1663 -1704 0
-1663 -1705 0
-1663 -1706 0
-1663 -1707 0
-1663 -1708 0
-1663 -1709 0
-1663 -1710 0
-1663 -1711 0
-1663 -1712 0
-1663 -1713 0
-1663 -1714 0
-1663 -1715 0
-1664 -1665 0
-1664 -1666 0
-1664 -1667 0
-1664 -1668 0
-1664 -1669 0
-1664 -1670 0
-1664 -1671 0
-1664 -1672 0
-1664 -1673 0
-1664 -1674 0
-1664 -1675 0
-1664 -1676 0
-1664 -1677 0
-1664 -1678 0
-1664 -1679 0
-1664 -1680 0
-1664 -1681 0
-1664 -1682 0
-1664 -1683 0
-1664 -1684 0
-1664 -1685 0
-1664 -1686 0
-1664 -1687 0
-1664 -1688 0
-1664 -1689 0
-1664 -1690 0
-1664 -1691 0
-1664 -1692 0
-1664 -1693 0
-1664 -1694 0
-1664 -1695 0
-1664 -1696 0
-1664 -1697 0
-1664 -1698 0
-1664 -1699 0
-1664 -1700 0
-1664 -1701 0
-1664 -1702 0
-1664 -1703 0
-1664 -1704 0
-1664 -1705 0
-1664 -1706 0
-1664 -1707 0
-1664 -1708 0
-1664 -1709 0
-1664 -1710 0
-1664 -1711 0
-1664 -1712 0
-1664 -1713 0
-1664 -1714 0
-1664 -1715 0
-1665 -1666 0
-1665 -1667 0
-1665 -1668 0
-1665 -1669 0
-1665 -1670 0
-1665 -1671 0
-1665 -1672 0
-1665 -1673 0
-1665 -1674 0
-1665 -1675 0
-1665 -1676 0
-1665 -1677 0
-1665 -1678 0
-1665 -1679 0
-1665 -1680 0
-1665 -1681 0
-1665 -1682 0
-1665 -1683 0
-1665 -1684 0
-1665 -1685 0
-1665 -1686 0
-1665 -1687 0
-1665 -1688 0
-1665 -1689 0
-1665 -1690 0
-1665 -1691 0
-1665 -1692 0
-1665 -1693 0
-1665 -1694 0
-1665 -1695 0
-1665 -1696 0
-1665 -1697 0
-1665 -1698 0
-1665 -1699 0
-1665 -1700 0
-1665 -1701 0
-1665 -1702 0
-1665 -1703 0
-1665 -1704 0
-1665 -1705 0
-1665 -1706 0
-1665 -1707 0
-1665 -1708 0
-1665 -1709 0
-1665 -1710 0
-1665 -1711 0
-1665 -1712 0
-1665 -1713 0
-1665 -1714 0
-1665 -1715 0
-1666 -1667 0
-1666 -1668 0
-1666 -1669 0
-1666 -1670 0
-1666 -1671 0
-1666 -1672 0
-1666 -1673 0
-1666 -1674 0
-1666 -1675 0
-1666 -1676 0
-1666 -1677 0
-1666 -1678 0
-1666 -1679 0
-1666 -1680 0
-1666 -1681 0
-1666 -1682 0
-1666 -1683 0
-1666 -1684 0
-1666 -1685 0
-1666 -1686 0
-1666 -1687 0
-1666 -1688 0
-1666 -1689 0
-1666 -1690 0
-1666 -1691 0
-1666 -1692 0
-1666 -1693 0
-1666 -1694 0
-1666 -1695 0
-1666 -1696 0
-1666 -1697 0
-1666 -1698 0
-1666 -1699 0
-1666 -1700 0
-1666 -1701 0
-1666 -1702 0
-1666 -1703 0
-1666 -1704 0
-1666 -1705 0
-1666 -1706 0
-1666 -1707 0
-1666 -1708 0
-1666 -1709 0
-1666 -1710 0
-1666 -1711 0
-1666 -1712 0
-1666 -1713 0
-1666 -1714 0
-1666 -1715 0
-1667 -1668 0
-1667 -1669 0
-1667 -1670 0
-1667 -1671 0
-1667 -1672 0
-1667 -1673 0
-1667 -1674 0
-1667 -1675 0
-1667 -1676 0
-1667 -1677 0
-1667 -1678 0
-1667 -1679 0
-1667 -1680 0
-1667 -1681 0
-1667 -1682 0
-1667 -1683 0
-1667 -1684 0
-1667 -1685 0
-1667 -1686 0
-1667 -1687 0
-1667 -1688 0
-1667 -1689 0
-1667 -1690 0
-1667 -1691 0
-1667 -1692 0
-1667 -1693 0
-1667 -1694 0
-1667 -1695 0
-1667 -1696 0
-1667 -1697 0
-1667 -1698 0
-1667 -1699 0
-1667 -1700 0
-1667 -1701 0
-1667 -1702 0
-1667 -1703 0
-1667 -1704 0
-1667 -1705 0
-1667 -1706 0
-1667 -1707 0
-1667 -1708 0
-1667 -1709 0
-1667 -1710 0
-1667 -1711 0
-1667 -1712 0
-1667 -1713 0
-1667 -1714 0
-1667 -1715 0
-1668 -1669 0
-1668 -1670 0
-1668 -1671 0
-1668 -1672 0
-1668 -1673 0
-1668 -1674 0
-1668 -1675 0
-1668 -1676 0
-1668 -1677 0
-1668 -1678 0
-1668 -1679 0
-1668 -1680 0
-1668 -1681 0
-1668 -1682 0
-1668 -1683 0
-1668 -1684 0
-1668 -1685 0
-1668 -1686 0
-1668 -1687 0
-1668 -1688 0
-1668 -1689 0
-1668 -1690 0
-1668 -1691 0
-1668 -1692 0
-1668 -1693 0
-1668 -1694 0
-1668 -1695 0
-1668 -1696 0
-1668 -1697 0
-1668 -1698 0
-1668 -1699 0
-1668 -1700 0
-1668 -1701 0
-1668 -1702 0
-1668 -1703 0
-1668 -1704 0
-1668 -1705 0
-1668 -1706 0
-1668 -1707 0
-1668 -1708 0
-1668 -1709 0
-1668 -1710 0
-1668 -1711 0
-1668 -1712 0
-1668 -1713 0
-1668 -1714 0
-1668 -1715 0
-1669 -1670 0
-1669 -1671 0
-1669 -1672 0
-1669 -1673 0
-1669 -1674 0
-1669 -1675 0
-1669 -1676 0
-1669 -1677 0
-1669 -1678 0
-1669 -1679 0
-1669 -1680 0
-1669 -1681 0
-1669 -1682 0
-1669 -1683 0
-1669 -1684 0
-1669 -1685 0
-1669 -1686 0
-1669 -1687 0
-1669 -1688 0
-1669 -1689 0
-1669 -1690 0
-1669 -1691 0
-1669 -1692 0
-1669 -1693 0
-1669 -1694 0
-1669 -1695 0
-1669 -1696 0
-1669 -1697 0
-1669 -1698 0
-1669 -1699 0
-1669 -1700 0
-1669 -1701 0
-1669 -1702 0
-1669 -1703 0
-1669 -1704 0
-1669 -1705 0
-1669 -1706 0
-1669 -1707 0
-1669 -1708 0
-1669 -1709 0
-1669 -1710 0
-1669 -1711 0
-1669 -1712 0
-1669 -1713 0
-1669 -1714 0
-1669 -1715 0
-1670 -1671 0
-1670 -1672 0
-1670 -1673 0
-1670 -1674 0
-1670 -1675 0
-1670 -1676 0
-1670 -1677 0
-1670 -1678 0
-1670 -1679 0
-1670 -1680 0
-1670 -1681 0
-1670 -1682 0
-1670 -1683 0
-1670 -1684 0
-1670 -1685 0
-1670 -1686 0
-1670 -1687 0
-1670 -1688 0
-1670 -1689 0
-1670 -1690 0
-1670 -1691 0
-1670 -1692 0
-1670 -1693 0
-1670 -1694 0
-1670 -1695 0
-1670 -1696 0
-1670 -1697 0
-1670 -1698 0
-1670 -1699 0
-1670 -1700 0
-1670 -1701 0
-1670 -1702 0
-1670 -1703 0
-1670 -1704 0
-1670 -1705 0
-1670 -1706 0
-1670 -1707 0
-1670 -1708 0
-1670 -1709 0
-1670 -1710 0
-1670 -1711 0
-1670 -1712 0
-1670 -1713 0
-1670 -1714 0
-1670 -1715 0
-1671 -1672 0
-1671 -1673 0
-1671 -1674 0
-1671 -1675 0
-1671 -1676 0
-1671 -1677 0
-1671 -1678 0
-1671 -1679 0
-1671 -1680 0
-1671 -1681 0
-1671 -1682 0
-1671 -1683 0
-1671 -1684 0
-1671 -1685 0
-1671 -1686 0
-1671 -1687 0
-1671 -1688 0
-1671 -1689 0
-1671 -1690 0
-1671 -1691 0
-1671 -1692 0
-1671 -1693 0
-1671 -1694 0
-1671 -1695 0
-1671 -1696 0
-1671 -1697 0
-1671 -1698 0
-1671 -1699 0
-1671 -1700 0
-1671 -1701 0
-1671 -1702 0
-1671 -1703 0
-1671 -1704 0
-1671 -1705 0
-1671 -1706 0
-1671 -1707 0
-1671 -1708 0
-1671 -1709 0
-1671 -1710 0
-1671 -1711 0
-1671 -1712 0
-1671 -1713 0
-1671 -1714 0
-1671 -1715 0
-1672 -1673 0
-1672 -1674 0
-1672 -1675 0
-1672 -1676 0
-1672 -1677 0
-1672 -1678 0
-1672 -1679 0
-1672 -1680 0
-1672 -1681 0
-1672 -1682 0
-1672 -1683 0
-1672 -1684 0
-1672 -1685 0
-1672 -1686 0
-1672 -1687 0
-1672 -1688 0
-1672 -1689 0
-1672 -1690 0
-1672 -1691 0
-1672 -1692 0
-1672 -1693 0
-1672 -1694 0
-1672 -1695 0
-1672 -1696 0
-1672 -1697 0
-1672 -1698 0
-1672 -1699 0
-1672 -1700 0
-1672 -1701 0
-1672 -1702 0
-1672 -1703 0
-1672 -1704 0
-1672 -1705 0
-1672 -1706 0
-1672 -1707 0
-1672 -1708 0
-1672 -1709 0
-1672 -1710 0
-1672 -1711 0
-1672 -1712 0
-1672 -1713 0
-1672 -1714 0
-1672 -1715 0
-1673 -1674 0
-1673 -1675 0
-1673 -1676 0
-1673 -1677 0
-1673 -1678 0
-1673 -1679 0
-1673 -1680 0
-1673 -1681 0
-1673 -1682 0
-1673 -1683 0
-1673 -1684 0
-1673 -1685 0
-1673 -1686 0
-1673 -1687 0
-1673 -1688 0
-1673 -1689 0
-1673 -1690 0
-1673 -1691 0
-1673 -1692 0
-1673 -1693 0
-1673 -1694 0
-1673 -1695 0
-1673 -1696 0
-1673 -1697 0
-1673 -1698 0
-1673 -1699 0
-1673 -1700 0
-1673 -1701 0
-1673 -1702 0
-1673 -1703 0
-1673 -1704 0
-1673 -1705 0
-1673 -1706 0
-1673 -1707 0
-1673 -1708 0
-1673 -1709 0
-1673 -1710 0
-1673 -1711 0
-1673 -1712 0
-1673 -1713 0
-1673 -1714 0
-1673 -1715 0
-1674 -1675 0
-1674 -1676 0
-1674 -1677 0
-1674 -1678 0
-1674 -1679 0
-1674 -1680 0
-1674 -1681 0
-1674 -1682 0
-1674 -1683 0
-1674 -1684 0
-1674 -1685 0
-1674 -1686 0
-1674 -1687 0
-1674 -1688 0
-1674 -1689 0
-1674 -1690 0
-1674 -1691 0
-1674 -1692 0
-1674 -1693 0
-1674 -1694 0
-1674 -1695 0
-1674 -1696 0
-1674 -1697 0
-1674 -1698 0
-1674 -1699 0
-1674 -1700 0
-1674 -1701 0
-1674 -1702 0
-1674 -1703 0
-1674 -1704 0
-1674 -1705 0
-1674 -1706 0
-1674 -1707 0
-1674 -1708 0
-1674 -1709 0
-1674 -1710 0
-1674 -1711 0
-1674 -1712 0
-1674 -1713 0
-1674 -1714 0
-1674 -1715 0
-1675 -1676 0
-1675 -1677 0
-1675 -1678 0
-1675 -1679 0
-1675 -1680 0
-1675 -1681 0
-1675 -1682 0
-1675 -1683 0
-1675 -1684 0
-1675 -1685 0
-1675 -1686 0
-1675 -1687 0
-1675 -1688 0
-1675 -1689 0
-1675 -1690 0
-1675 -1691 0
-1675 -1692 0
-1675 -1693 0
-1675 -1694 0
-1675 -1695 0
-1675 -1696 0
-1675 -1697 0
-1675 -1698 0
-1675 -1699 0
-1675 -1700 0
-1675 -1701 0
-1675 -1702 0
-1675 -1703 0
-1675 -1704 0
-1675 -1705 0
-1675 -1706 0
-1675 -1707 0
-1675 -1708 0
-1675 -1709 0
-1675 -1710 0
-1675 -1711 0
-1675 -1712 0
-1675 -1713 0
-1675 -1714 0
-1675 -1715 0
-1676 -1677 0
-1676 -1678 0
-1676 -1679 0
-1676 -1680 0
-1676 -1681 0
-1676 -1682 0
-1676 -1683 0
-1676 -1684 0
-1676 -1685 0
-1676 -1686 0
-1676 -1687 0
-1676 -1688 0
-1676 -1689 0
-1676 -1690 0
-1676 -1691 0
-1676 -1692 0
-1676 -1693 0
-1676 -1694 0
-1676 -1695 0
-1676 -1696 0
-1676 -1697 0
-1676 -1698 0
-1676 -1699 0
-1676 -1700 0
-1676 -1701 0
-1676 -1702 0
-1676 -1703 0
-1676 -1704 0
-1676 -1705 0
-1676 -1706 0
-1676 -1707 0
-1676 -1708 0
-1676 -1709 0
-1676 -1710 0
-1676 -1711 0
-1676 -1712 0
-1676 -1713 0
-1676 -1714 0
-1676 -1715 0
-1677 -1678 0
-1677 -1679 0
-1677 -1680 0
-1677 -1681 0
-1677 -1682 0
-1677 -1683 0
-1677 -1684 0
-1677 -1685 0
-1677 -1686 0
-1677 -1687 0
-1677 -1688 0
-1677 -1689 0
-1677 -1690 0
-1677 -1691 0
-1677 -1692 0
-1677 -1693 0
-1677 -1694 0
-1677 -1695 0
-1677 -1696 0
-1677 -1697 0
-1677 -1698 0
-1677 -1699 0
-1677 -1700 0
-1677 -1701 0
-1677 -1702 0
-1677 -1703 0
-1677 -1704 0
-1677 -1705 0
-1677 -1706 0
-1677 -1707 0
-1677 -1708 0
-1677 -1709 0
-1677 -1710 0
-1677 -1711 0
-1677 -1712 0
-1677 -1713 0
-1677 -1714 0
-1677 -1715 0
-1678 -1679 0
-1678 -1680 0
-1678 -1681 0
-1678 -1682 0
-1678 -1683 0
-1678 -1684 0
-1678 -1685 0
-1678 -1686 0
-1678 -1687 0
-1678 -1688 0
-1678 -1689 0
-1678 -1690 0
-1678 -1691 0
-1678 -1692 0
-1678 -1693 0
-1678 -1694 0
-1678 -1695 0
-1678 -1696 0
-1678 -1697 0
-1678 -1698 0
-1678 -1699 0
-1678 -1700 0
-1678 -1701 0
-1678 -1702 0
-1678 -1703 0
-1678 -1704 0
-1678 -1705 0
-1678 -1706 0
-1678 -1707 0
-1678 -1708 0
-1678 -1709 0
-1678 -1710 0
-1678 -1711 0
-1678 -1712 0
-1678 -1713 0
-1678 -1714 0
-1678 -1715 0
-1679 -1680 0
-1679 -1681 0
-1679 -1682 0
-1679 -1683 0
-1679 -1684 0
-1679 -1685 0
-1679 -1686 0
-1679 -1687 0
-1679 -1688 0
-1679 -1689 0
-1679 -1690 0
-1679 -1691 0
-1679 -1692 0
-1679 -1693 0
-1679 -1694 0
-1679 -1695 0
-1679 -1696 0
-1679 -1697 0
-1679 -1698 0
-1679 -1699 0
-1679 -1700 0
-1679 -1701 0
-1679 -1702 0
-1679 -1703 0
-1679 -1704 0
-1679 -1705 0
-1679 -1706 0
-1679 -1707 0
-1679 -1708 0
-1679 -1709 0
-1679 -1710 0
-1679 -1711 0
-1679 -1712 0
-1679 -1713 0
-1679 -1714 0
-1679 -1715 0
-1680 -1681 0
-1680 -1682 0
-1680 -1683 0
-1680 -1684 0
-1680 -1685 0
-1680 -1686 0
-1680 -1687 0
-1680 -1688 0
-1680 -1689 0
-1680 -1690 0
-1680 -1691 0
-1680 -1692 0
-1680 -1693 0
-1680 -1694 0
-1680 -1695 0
-1680 -1696 0
-1680 -1697 0
-1680 -1698 0
-1680 -1699 0
-1680 -1700 0
-1680 -1701 0
-1680 -1702 0
-1680 -1703 0
-1680 -1704 0
-1680 -1705 0
-1680 -1706 0
-1680 -1707 0
-1680 -1708 0
-1680 -1709 0
-1680 -1710 0
-1680 -1711 0
-1680 -1712 0
-1680 -1713 0
-1680 -1714 0
-1680 -1715 0
-1681 -1682 0
-1681 -1683 0
-1681 -1684 0
-1681 -1685 0
-1681 -1686 0
-1681 -1687 0
-1681 -1688 0
-1681 -1689 0
-1681 -1690 0
-1681 -1691 0
-1681 -1692 0
-1681 -1693 0
-1681 -1694 0
-1681 -1695 0
-1681 -1696 0
-1681 -1697 0
-1681 -1698 0
-1681 -1699 0
-1681 -1700 0
-1681 -1701 0
-1681 -1702 0
-1681 -1703 0
-1681 -1704 0
-1681 -1705 0
-1681 -1706 0
-1681 -1707 0
-1681 -1708 0
-1681 -1709 0
-1681 -1710 0
-1681 -1711 0
-1681 -1712 0
-1681 -1713 0
-1681 -1714 0
-1681 -1715 0
-1682 -1683 0
-1682 -1684 0
-1682 -1685 0
-1682 -1686 0
-1682 -1687 0
-1682 -1688 0
-1682 -1689 0
-1682 -1690 0
-1682 -1691 0
-1682 -1692 0
-1682 -1693 0
-1682 -1694 0
-1682 -1695 0
-1682 -1696 0
-1682 -1697 0
-1682 -1698 0
-1682 -1699 0
-1682 -1700 0
-1682 -1701 0
-1682 -1702 0
-1682 -1703 0
-1682 -1704 0
-1682 -1705 0
-1682 -1706 0
-1682 -1707 0
-1682 -1708 0
-1682 -1709 0
-1682 -1710 0
-1682 -1711 0
-1682 -1712 0
-1682 -1713 0
-1682 -1714 0
-1682 -1715 0
-1683 -1684 0
-1683 -1685 0
-1683 -1686 0
-1683 -1687 0
-1683 -1688 0
-1683 -1689 0
-1683 -1690 0
-1683 -1691 0
-1683 -1692 0
-1683 -1693 0
-1683 -1694 0
-1683 -1695 0
-1683 -1696 0
-1683 -1697 0
-1683 -1698 0
-1683 -1699 0
-1683 -1700 0
-1683 -1701 0
-1683 -1702 0
-1683 -1703 0
-1683 -1704 0
-1683 -1705 0
-1683 -1706 0
-1683 -1707 0
-1683 -1708 0
-1683 -1709 0
-1683 -1710 0
-1683 -1711 0
-1683 -1712 0
-1683 -1713 0
-1683 -1714 0
-1683 -1715 0
-1684 -1685 0
-1684 -1686 0
-1684 -1687 0
-1684 -1688 0
-1684 -1689 0
-1684 -1690 0
-1684 -1691 0
-1684 -1692 0
-1684 -1693 0
-1684 -1694 0
-1684 -1695 0
-1684 -1696 0
-1684 -1697 0
-1684 -1698 0
-1684 -1699 0
-1684 -1700 0
-1684 -1701 0
-1684 -1702 0
-1684 -1703 0
-1684 -1704 0
-1684 -1705 0
-1684 -1706 0
-1684 -1707 0
-1684 -1708 0
-1684 -1709 0
-1684 -1710 0
-1684 -1711 0
-1684 -1712 0
-1684 -1713 0
-1684 -1714 0
-1684 -1715 0
-1685 -1686 0
-1685 -1687 0
-1685 -1688 0
-1685 -1689 0
-1685 -1690 0
-1685 -1691 0
-1685 -1692 0
-1685 -1693 0
-1685 -1694 0
-1685 -1695 0
-1685 -1696 0
-1685 -1697 0
-1685 -1698 0
-1685 -1699 0
-1685 -1700 0
-1685 -1701 0
-1685 -1702 0
-1685 -1703 0
-1685 -1704 0
-1685 -1705 0
-1685 -1706 0
-1685 -1707 0
-1685 -1708 0
-1685 -1709 0
-1685 -1710 0
-1685 -1711 0
-1685 -1712 0
-1685 -1713 0
-1685 -1714 0
-1685 -1715 0
-1686 -1687 0
-1686 -1688 0
-1686 -1689 0
-1686 -1690 0
-1686 -1691 0
-1686 -1692 0
-1686 -1693 0
-1686 -1694 0
-1686 -1695 0
-1686 -1696 0
-1686 -1697 0
-1686 -1698 0
-1686 -1699 0
-1686 -1700 0
-1686 -1701 0
-1686 -1702 0
-1686 -1703 0
-1686 -1704 0
-1686 -1705 0
-1686 -1706 0
-1686 -1707 0
-1686 -1708 0
-1686 -1709 0
-1686 -1710 0
-1686 -1711 0
-1686 -1712 0
-1686 -1713 0
-1686 -1714 0
-1686 -1715 0
-1687 -1688 0
-1687 -1689 0
-1687 -1690 0
-1687 -1691 0
-1687 -1692 0
-1687 -1693 0
-1687 -1694 0
-1687 -1695 0
-1687 -1696 0
-1687 -1697 0
-1687 -1698 0
-1687 -1699 0
-1687 -1700 0
-1687 -1701 0
-1687 -1702 0
-1687 -1703 0
-1687 -1704 0
-1687 -1705 0
-1687 -1706 0
-1687 -1707 0
-1687 -1708 0
-1687 -1709 0
-1687 -1710 0
-1687 -1711 0
-1687 -1712 0
-1687 -1713 0
-1687 -1714 0
-1687 -1715 0
-1688 -1689 0
-1688 -1690 0
-1688 -1691 0
-1688 -1692 0
-1688 -1693 0
-1688 -1694 0
-1688 -1695 0
-1688 -1696 0
-1688 -1697 0
-1688 -1698 0
-1688 -1699 0
-1688 -1700 0
-1688 -1701 0
-1688 -1702 0
-1688 -1703 0
-1688 -1704 0
-1688 -1705 0
-1688 -1706 0
-1688 -1707 0
-1688 -1708 0
-1688 -1709 0
-1688 -1710 0
-1688 -1711 0
-1688 -1712 0
-1688 -1713 0
-1688 -1714 0
-1688 -1715 0
-1689 -1690 0
-1689 -1691 0
-1689 -1692 0
-1689 -1693 0
-1689 -1694 0
-1689 -1695 0
-1689 -1696 0
-1689 -1697 0
-1689 -1698 0
-1689 -1699 0
-1689 -1700 0
-1689 -1701 0
-1689 -1702 0
-1689 -1703 0
-1689 -1704 0
-1689 -1705 0
-1689 -1706 0
-1689 -1707 0
-1689 -1708 0
-1689 -1709 0
-1689 -1710 0
-1689 -1711 0
-1689 -1712 0
-1689 -1713 0
-1689 -1714 0
-1689 -1715 0
-1690 -1691 0
-1690 -1692 0
-1690 -1693 0
-1690 -1694 0
-1690 -1695 0
-1690 -1696 0
-1690 -1697 0
-1690 -1698 0
-1690 -1699 0
-1690 -1700 0
-1690 -1701 0
-1690 -1702 0
-1690 -1703 0
-1690 -1704 0
-1690 -1705 0
-1690 -1706 0
-1690 -1707 0
-1690 -1708 0
-1690 -1709 0
-1690 -1710 0
-1690 -1711 0
-1690 -1712 0
-1690 -1713 0
-1690 -1714 0
-1690 -1715 0
-1691 -1692 0
-1691 -1693 0
-1691 -1694 0
-1691 -1695 0
-1691 -1696 0
-1691 -1697 0
-1691 -1698 0
-1691 -1699 0
-1691 -1700 0
-1691 -1701 0
-1691 -1702 0
-1691 -1703 0
-1691 -1704 0
-1691 -1705 0
-1691 -1706 0
-1691 -1707 0
-1691 -1708 0
-1691 -1709 0
-1691 -1710 0
-1691 -1711 0
-1691 -1712 0
-1691 -1713 0
-1691 -1714 0
-1691 -1715 0
-1692 -1693 0
-1692 -1694 0
-1692 -1695 0
-1692 -1696 0
-1692 -1697 0
-1692 -1698 0
-1692 -1699 0
-1692 -1700 0
-1692 -1701 0
-1692 -1702 0
-1692 -1703 0
-1692 -1704 0
-1692 -1705 0
-1692 -1706 0
-1692 -1707 0
-1692 -1708 0
-1692 -1709 0
-1692 -1710 0
-1692 -1711 0
-1692 -1712 0
-1692 -1713 0
-1692 -1714 0
-1692 -1715 0
-1693 -1694 0
-1693 -1695 0
-1693 -1696 0
-1693 -1697 0
-1693 -1698 0
-1693 -1699 0
-1693 -1700 0
-1693 -1701 0
-1693 -1702 0
-1693 -1703 0
-1693 -1704 0
-1693 -1705 0
-1693 -1706 0
-1693 -1707 0
-1693 -1708 0
-1693 -1709 0
-1693 -1710 0
-1693 -1711 0
-1693 -1712 0
-1693 -1713 0
-1693 -1714 0
-1693 -1715 0
-1694 -1695 0
-1694 -1696 0
-1694 -1697 0
-1694 -1698 0
-1694 -1699 0
-1694 -1700 0
-1694 -1701 0
-1694 -1702 0
-1694 -1703 0
-1694 -1704 0
-1694 -1705 0
-1694 -1706 0
-1694 -1707 0
-1694 -1708 0
-1694 -1709 0
-1694 -1710 0
-1694 -1711 0
-1694 -1712 0
-1694 -1713 0
-1694 -1714 0
-1694 -1715 0
-1695 -1696 0
-1695 -1697 0
-1695 -1698 0
-1695 -1699 0
-1695 -1700 0
-1695 -1701 0
-1695 -1702 0
-1695 -1703 0
-1695 -1704 0
-1695 -1705 0
-1695 -1706 0
-1695 -1707 0
-1695 -1708 0
-1695 -1709 0
-1695 -1710 0
-1695 -1711 0
-1695 -1712 0
-1695 -1713 0
-1695 -1714 0
-1695 -1715 0
-1696 -1697 0
-1696 -1698 0
-1696 -1699 0
-1696 -1700 0
-1696 -1701 0
-1696 -1702 0
-1696 -1703 0
-1696 -1704 0
-1696 -1705 0
-1696 -1706 0
-1696 -1707 0
-1696 -1708 0
-1696 -1709 0
-1696 -1710 0
-1696 -1711 0
-1696 -1712 0
-1696 -1713 0
-1696 -1714 0
-1696 -1715 0
-1697 -1698 0
-1697 -1699 0
-1697 -1700 0
-1697 -1701 0
-1697 -1702 0
-1697 -1703 0
-1697 -1704 0
-1697 -1705 0
-1697 -1706 0
-1697 -1707 0
-1697 -1708 0
-1697 -1709 0
-1697 -1710 0
-1697 -1711 0
-1697 -1712 0
-1697 -1713 0
-1697 -1714 0
-1697 -1715 0
-1698 -1699 0
-1698 -1700 0
-1698 -1701 0
-1698 -1702 0
-1698 -1703 0
-1698 -1704 0
-1698 -1705 0
-1698 -1706 0
-1698 -1707 0
-1698 -1708 0
-1698 -1709 0
-1698 -1710 0
-1698 -1711 0
-1698 -1712 0
-1698 -1713 0
-1698 -1714 0
-1698 -1715 0
-1699 -1700 0
-1699 -1701 0
-1699 -1702 0
-1699 -1703 0
-1699 -1704 0
-1699 -1705 0
-1699 -1706 0
-1699 -1707 0
-1699 -1708 0
-1699 -1709 0
-1699 -1710 0
-1699 -1711 0
-1699 -1712 0
-1699 -1713 0
-1699 -1714 0
-1699 -1715 0
-1700 -1701 0
-1700 -1702 0
-1700 -1703 0
-1700 -1704 0
-1700 -1705 0
-1700 -1706 0
-1700 -1707 0
-1700 -1708 0
-1700 -1709 0
-1700 -1710 0
-1700 -1711 0
-1700 -1712 0
-1700 -1713 0
-1700 -1714 0
-1700 -1715 0
-1701 -1702 0
-1701 -1703 0
-1701 -1704 0
-1701 -1705 0
-1701 -1706 0
-1701 -1707 0
-1701 -1708 0
-1701 -1709 0
-1701 -1710 0
-1701 -1711 0
-1701 -1712 0
-1701 -1713 0
-1701 -1714 0
-1701 -1715 0
-1702 -1703 0
-1702 -1704 0
-1702 -1705 0
-1702 -1706 0
-1702 -1707 0
-1702 -1708 0
-1702 -1709 0
-1702 -1710 0
-1702 -1711 0
-1702 -1712 0
-1702 -1713 0
-1702 -1714 0
-1702 -1715 0
-1703 -1704 0
-1703 -1705 0
-1703 -1706 0
-1703 -1707 0
-1703 -1708 0
-1703 -1709 0
-1703 -1710 0
-1703 -1711 0
-1703 -1712 0
-1703 -1713 0
-1703 -1714 0
-1703 -1715 0
-1704 -1705 0
-1704 -1706 0
-1704 -1707 0
-1704 -1708 0
-1704 -1709 0
-1704 -1710 0
-1704 -1711 0
-1704 -1712 0
-1704 -1713 0
-1704 -1714 0
-1704 -1715 0
-1705 -1706 0
-1705 -1707 0
-1705 -1708 0
-1705 -1709 0
-1705 -1710 0
-1705 -1711 0
-1705 -1712 0
-1705 -1713 0
-1705 -1714 0
-1705 -1715 0
-1706 -1707 0
-1706 -1708 0
-1706 -1709 0
-1706 -1710 0
-1706 -1711 0
-1706 -1712 0
-1706 -1713 0
-1706 -1714 0
-1706 -1715 0
-1707 -1708 0
-1707 -1709 0
-1707 -1710 0
-1707 -1711 0
-1707 -1712 0
-1707 -1713 0
-1707 -1714 0
-1707 -1715 0
-1708 -1709 0
-1708 -1710 0
-1708 -1711 0
-1708 -1712 0
-1708 -1713 0
-1708 -1714 0
-1708 -1715 0
-1709 -1710 0
-1709 -1711 0
-1709 -1712 0
-1709 -1713 0
-1709 -1714 0
-1709 -1715 0
-1710 -1711 0
-1710 -1712 0
-1710 -1713 0
-1710 -1714 0
-1710 -1715 0
-1711 -1712 0
-1711 -1713 0
-1711 -1714 0
-1711 -1715 0
-1712 -1713 0
-1712 -1714 0
-1712 -1715 0
-1713 -1714 0
-1713 -1715 0
-1714 -1715 0
-1632 778 0
-1632 926 0
-1632 -748 0
-1632 -749 0
-1632 -750 0
-1632 -751 0
-1632 -752 0
-1632 -766 948 0
-1632 -766 -831 0
-1632 -766 -855 0
-1632 -766 -879 0
-1632 -766 -741 -763 0
-1632 -767 949 0
-1632 -767 -832 0
-1632 -767 -856 0
-1632 -767 -880 0
-1632 -767 -741 -764 0
-1632 -768 950 0
-1632 -768 -833 0
-1632 -768 -857 0
-1632 -768 -881 0
-1632 -768 -741 -765 0
-1632 -769 0
-1633 778 0
-1633 927 0
-1633 -747 0
-1633 -749 0
-1633 -750 0
-1633 -751 0
-1633 -752 0
-1633 -766 948 0
-1633 -766 -835 0
-1633 -766 -859 0
-1633 -766 -883 0
-1633 -766 -742 -763 0
-1633 -767 949 0
-1633 -767 -836 0
-1633 -767 -860 0
-1633 -767 -884 0
-1633 -767 -742 -764 0
-1633 -768 950 0
-1633 -768 -837 0
-1633 -768 -861 0
-1633 -768 -885 0
-1633 -768 -742 -765 0
-1633 -769 0
-1634 778 0
-1634 928 0
-1634 -747 0
-1634 -748 0
-1634 -750 0
-1634 -751 0
-1634 -752 0
-1634 -766 948 0
-1634 -766 -839 0
-1634 -766 -863 0
-1634 -766 -887 0
-1634 -766 -743 -763 0
-1634 -767 949 0
-1634 -767 -840 0
-1634 -767 -864 0
-1634 -767 -888 0
-1634 -767 -743 -764 0
-1634 -768 950 0
-1634 -768 -841 0
-1634 -768 -865 0
-1634 -768 -889 0
-1634 -768 -743 -765 0
-1634 -769 0
-1635 778 0
-1635 929 0
-1635 -747 0
-1635 -748 0
-1635 -749 0
-1635 -751 0
-1635 -752 0
-1635 -766 948 0
-1635 -766 -843 0
-1635 -766 -867 0
-1635 -766 -891 0
-1635 -766 -744 -763 0
-1635 -767 949 0
-1635 -767 -844 0
-1635 -767 -868 0
-1635 -767 -892 0
-1635 -767 -744 -764 0
-1635 -768 950 0
-1635 -768 -845 0
-1635 -768 -869 0
-1635 -768 -893 0
-1635 -768 -744 -765 0
-1635 -769 0
-1636 778 0
-1636 930 0
-1636 -747 0
-1636 -748 0
-1636 -749 0
-1636 -750 0
-1636 -752 0
-1636 -766 948 0
-1636 -766 -847 0
-1636 -766 -871 0
-1636 -766 -895 0
-1636 -766 -745 -763 0
-1636 -767 949 0
-1636 -767 -848 0
-1636 -767 -872 0
-1636 -767 -896 0
-1636 -767 -745 -764 0
-1636 -768 950 0
-1636 -768 -849 0
-1636 -768 -873 0
-1636 -768 -897 0
-1636 -768 -745 -765 0
-1636 -769 0
-1637 778 0
-1637 931 0
-1637 -747 0
-1637 -748 0
-1637 -749 0
-1637 -750 0
-1637 -751 0
-1637 -766 948 0
-1637 -766 -851 0
-1637 -766 -875 0
-1637 -766 -899 0
-1637 -766 -746 -763 0
-1637 -767 949 0
-1637 -767 -852 0
-1637 -767 -876 0
-1637 -767 -900 0
-1637 -767 -746 -764 0
-1637 -768 950 0
-1637 -768 -853 0
-1637 -768 -877 0
-1637 -768 -901 0
-1637 -768 -746 -765 0
-1637 -769 0
-1638 778 0
-1638 926 0
-1638 -754 0
-1638 -755 0
-1638 -756 0
-1638 -757 0
-1638 -770 948 0
-1638 -770 -831 0
-1638 -770 -855 0
-1638 -770 -879 0
-1638 -770 -741 -763 0
-1638 -771 949 0
-1638 -771 -832 0
-1638 -771 -856 0
-1638 -771 -880 0
-1638 -771 -741 -764 0
-1638 -772 950 0
-1638 -772 -833 0
-1638 -772 -857 0
-1638 -772 -881 0
-1638 -772 -741 -765 0
-1638 -773 0
-1639 778 0
-1639 927 0
-1639 -755 0
-1639 -756 0
-1639 -757 0
-1639 -770 948 0
-1639 -770 -835 0
-1639 -770 -859 0
-1639 -770 -883 0
-1639 -770 -742 -763 0
-1639 -771 949 0
-1639 -771 -836 0
-1639 -771 -860 0
-1639 -771 -884 0
-1639 -771 -742 -764 0
-1639 -772 950 0
-1639 -772 -837 0
-1639 -772 -861 0
-1639 -772 -885 0
-1639 -772 -742 -765 0
-1639 -773 0
-1640 778 0
-1640 928 0
-1640 -753 0
-1640 -756 0
-1640 -757 0
-1640 -770 948 0
-1640 -770 -839 0
-1640 -770 -863 0
-1640 -770 -887 0
-1640 -770 -743 -763 0
-1640 -771 949 0
-1640 -771 -840 0
-1640 -771 -864 0
-1640 -771 -888 0
-1640 -771 -743 -764 0
-1640 -772 950 0
-1640 -772 -841 0
-1640 -772 -865 0
-1640 -772 -889 0
-1640 -772 -743 -765 0
-1640 -773 0
-1641 778 0
-1641 929 0
-1641 -753 0
-1641 -754 0
-1641 -757 0
-1641 -770 948 0
-1641 -770 -843 0
-1641 -770 -867 0
-1641 -770 -891 0
-1641 -770 -744 -763 0
-1641 -771 949 0
-1641 -771 -844 0
-1641 -771 -868 0
-1641 -771 -892 0
-1641 -771 -744 -764 0
-1641 -772 950 0
-1641 -772 -845 0
-1641 -772 -869 0
-1641 -772 -893 0
-1641 -772 -744 -765 0
-1641 -773 0
-1642 778 0
-1642 930 0
-1642 -753 0
-1642 -754 0
-1642 -755 0
-1642 -770 948 0
-1642 -770 -847 0
-1642 -770 -871 0
-1642 -770 -895 0
-1642 -770 -745 -763 0
-1642 -771 949 0
-1642 -771 -848 0
-1642 -771 -872 0
-1642 -771 -896 0
-1642 -771 -745 -764 0
-1642 -772 950 0
-1642 -772 -849 0
-1642 -772 -873 0
-1642 -772 -897 0
-1642 -772 -745 -765 0
-1642 -773 0
-1643 778 0
-1643 931 0
-1643 -753 0
-1643 -754 0
-1643 -755 0
-1643 -756 0
-1643 -770 948 0
-1643 -770 -851 0
-1643 -770 -875 0
-1643 -770 -899 0
-1643 -770 -746 -763 0
-1643 -771 949 0
-1643 -771 -852 0
-1643 -771 -876 0
-1643 -771 -900 0
-1643 -771 -746 -764 0
-1643 -772 950 0
-1643 -772 -853 0
-1643 -772 -877 0
-1643 -772 -901 0
-1643 -772 -746 -765 0
-1643 -773 0
-1644 778 0
-1644 926 0
-1644 -759 0
-1644 -760 0
-1644 -761 0
-1644 -774 948 0
-1644 -774 -831 0
-1644 -774 -855 0
-1644 -774 -879 0
-1644 -774 -741 -763 0
-1644 -775 949 0
-1644 -775 -832 0
-1644 -775 -856 0
-1644 -775 -880 0
-1644 -775 -741 -764 0
-1644 -776 950 0
-1644 -776 -833 0
-1644 -776 -857 0
-1644 -776 -881 0
-1644 -776 -741 -765 0
-1644 -777 0
-1645 778 0
-1645 927 0
-1645 -760 0
-1645 -761 0
-1645 -774 948 0
-1645 -774 -835 0
-1645 -774 -859 0
-1645 -774 -883 0
-1645 -774 -742 -763 0
-1645 -775 949 0
-1645 -775 -836 0
-1645 -775 -860 0
-1645 -775 -884 0
-1645 -775 -742 -764 0
-1645 -776 950 0
-1645 -776 -837 0
-1645 -776 -861 0
-1645 -776 -885 0
-1645 -776 -742 -765 0
-1645 -777 0
-1646 778 0
-1646 928 0
-1646 -761 0
-1646 -774 948 0
-1646 -774 -839 0
-1646 -774 -863 0
-1646 -774 -887 0
-1646 -774 -743 -763 0
-1646 -775 949 0
-1646 -775 -840 0
-1646 -775 -864 0
-1646 -775 -888 0
-1646 -775 -743 -764 0
-1646 -776 950 0
-1646 -776 -841 0
-1646 -776 -865 0
-1646 -776 -889 0
-1646 -776 -743 -765 0
-1646 -777 0
-1647 778 0
-1647 929 0
-1647 -758 0
-1647 -774 948 0
-1647 -774 -843 0
-1647 -774 -867 0
-1647 -774 -891 0
-1647 -774 -744 -763 0
-1647 -775 949 0
-1647 -775 -844 0
-1647 -775 -868 0
-1647 -775 -892 0
-1647 -775 -744 -764 0
-1647 -776 950 0
-1647 -776 -845 0
-1647 -776 -869 0
-1647 -776 -893 0
-1647 -776 -744 -765 0
-1647 -777 0
-1648 778 0
-1648 930 0
-1648 -758 0
-1648 -759 0
-1648 -774 948 0
-1648 -774 -847 0
-1648 -774 -871 0
-1648 -774 -895 0
-1648 -774 -745 -763 0
-1648 -775 949 0
-1648 -775 -848 0
-1648 -775 -872 0
-1648 -775 -896 0
-1648 -775 -745 -764 0
-1648 -776 950 0
-1648 -776 -849 0
-1648 -776 -873 0
-1648 -776 -897 0
-1648 -776 -745 -765 0
-1648 -777 0
-1649 778 0
-1649 931 0
-1649 -758 0
-1649 -759 0
-1649 -760 0
-1649 -774 948 0
-1649 -774 -851 0
-1649 -774 -875 0
-1649 -774 -899 0
-1649 -774 -746 -763 0
-1649 -775 949 0
-1649 -775 -852 0
-1649 -775 -876 0
-1649 -775 -900 0
-1649 -775 -746 -764 0
-1649 -776 950 0
-1649 -776 -853 0
-1649 -776 -877 0
-1649 -776 -901 0
-1649 -776 -746 -765 0
-1649 -777 0
-1650 778 0
-1650 926 0
-1650 947 0
-1650 -830 0
-1650 -854 0
-1650 -878 0
-1650 -741 -762 0
-1651 778 0
-1651 927 0
-1651 947 0
-1651 -834 0
-1651 -858 0
-1651 -882 0
-1651 -742 -762 0
-1652 778 0
-1652 928 0
-1652 947 0
-1652 -838 0
-1652 -862 0
-1652 -886 0
-1652 -743 -762 0
-1653 778 0
-1653 929 0
-1653 947 0
-1653 -842 0
-1653 -866 0
-1653 -890 0
-1653 -744 -762 0
-1654 778 0
-1654 930 0
-1654 947 0
-1654 -846 0
-1654 -870 0
-1654 -894 0
-1654 -745 -762 0
-1655 778 0
-1655 931 0
-1655 947 0
-1655 -850 0
-1655 -874 0
-1655 -898 0
-1655 -746 -762 0
-1656 779 0
-1656 932 0
-1656 -742 0
-1656 -743 0
-1656 -744 0
-1656 -745 0
-1656 -746 0
-1656 -762 952 0
-1656 -762 -807 0
-1656 -762 -855 0
-1656 -762 -879 0
-1656 -762 -747 -767 0
-1656 -763 953 0
-1656 -763 -808 0
-1656 -763 -856 0
-1656 -763 -880 0
-1656 -763 -747 -768 0
-1656 -764 954 0
-1656 -764 -809 0
-1656 -764 -857 0
-1656 -764 -881 0
-1656 -764 -747 -769 0
-1656 -765 0
-1657 779 0
-1657 933 0
-1657 -741 0
-1657 -743 0
-1657 -744 0
-1657 -745 0
-1657 -746 0
-1657 -762 952 0
-1657 -762 -811 0
-1657 -762 -859 0
-1657 -762 -883 0
-1657 -762 -748 -767 0
-1657 -763 953 0
-1657 -763 -812 0
-1657 -763 -860 0
-1657 -763 -884 0
-1657 -763 -748 -768 0
-1657 -764 954 0
-1657 -764 -813 0
-1657 -764 -861 0
-1657 -764 -885 0
-1657 -764 -748 -769 0
-1657 -765 0
-1658 779 0
-1658 934 0
-1658 -741 0
-1658 -742 0
-1658 -744 0
-1658 -745 0
-1658 -746 0
-1658 -762 952 0
-1658 -762 -815 0
-1658 -762 -863 0
-1658 -762 -887 0
-1658 -762 -749 -767 0
-1658 -763 953 0
-1658 -763 -816 0
-1658 -763 -864 0
-1658 -763 -888 0
-1658 -763 -749 -768 0
-1658 -764 954 0
-1658 -764 -817 0
-1658 -764 -865 0
-1658 -764 -889 0
-1658 -764 -749 -769 0
-1658 -765 0
-1659 779 0
-1659 935 0
-1659 -741 0
-1659 -742 0
-1659 -743 0
-1659 -745 0
-1659 -746 0
-1659 -762 952 0
-1659 -762 -819 0
-1659 -762 -867 0
-1659 -762 -891 0
-1659 -762 -750 -767 0
-1659 -763 953 0
-1659 -763 -820 0
-1659 -763 -868 0
-1659 -763 -892 0
-1659 -763 -750 -768 0
-1659 -764 954 0
-1659 -764 -821 0
-1659 -764 -869 0
-1659 -764 -893 0
-1659 -764 -750 -769 0
-1659 -765 0
-1660 779 0
-1660 936 0
-1660 -741 0
-1660 -742 0
-1660 -743 0
-1660 -744 0
-1660 -746 0
-1660 -762 952 0
-1660 -762 -823 0
-1660 -762 -871 0
-1660 -762 -895 0
-1660 -762 -751 -767 0
-1660 -763 953 0
-1660 -763 -824 0
-1660 -763 -872 0
-1660 -763 -896 0
-1660 -763 -751 -768 0
-1660 -764 954 0
-1660 -764 -825 0
-1660 -764 -873 0
-1660 -764 -897 0
-1660 -764 -751 -769 0
-1660 -765 0
-1661 779 0
-1661 937 0
-1661 -741 0
-1661 -742 0
-1661 -743 0
-1661 -744 0
-1661 -745 0
-1661 -762 952 0
-1661 -762 -827 0
-1661 -762 -875 0
-1661 -762 -899 0
-1661 -762 -752 -767 0
-1661 -763 953 0
-1661 -763 -828 0
-1661 -763 -876 0
-1661 -763 -900 0
-1661 -763 -752 -768 0
-1661 -764 954 0
-1661 -764 -829 0
-1661 -764 -877 0
-1661 -764 -901 0
-1661 -764 -752 -769 0
-1661 -765 0
-1662 779 0
-1662 932 0
-1662 -754 0
-1662 -755 0
-1662 -756 0
-1662 -757 0
-1662 -770 952 0
-1662 -770 -807 0
-1662 -770 -855 0
-1662 -770 -879 0
-1662 -770 -747 -767 0
-1662 -771 953 0
-1662 -771 -808 0
-1662 -771 -856 0
-1662 -771 -880 0
-1662 -771 -747 -768 0
-1662 -772 954 0
-1662 -772 -809 0
-1662 -772 -857 0
-1662 -772 -881 0
-1662 -772 -747 -769 0
-1662 -773 0
-1663 779 0
-1663 933 0
-1663 -755 0
-1663 -756 0
-1663 -757 0
-1663 -770 952 0
-1663 -770 -811 0
-1663 -770 -859 0
-1663 -770 -883 0
-1663 -770 -748 -767 0
-1663 -771 953 0
-1663 -771 -812 0
-1663 -771 -860 0
-1663 -771 -884 0
-1663 -771 -748 -768 0
-1663 -772 954 0
-1663 -772 -813 0
-1663 -772 -861 0
-1663 -772 -885 0
-1663 -772 -748 -769 0
-1663 -773 0
-1664 779 0
-1664 934 0
-1664 -753 0
-1664 -756 0
-1664 -757 0
-1664 -770 952 0
-1664 -770 -815 0
-1664 -770 -863 0
-1664 -770 -887 0
-1664 -770 -749 -767 0
-1664 -771 953 0
-1664 -771 -816 0
-1664 -771 -864 0
-1664 -771 -888 0
-1664 -771 -749 -768 0
-1664 -772 954 0
-1664 -772 -817 0
-1664 -772 -865 0
-1664 -772 -889 0
-1664 -772 -749 -769 0
-1664 -773 0
-1665 779 0
-1665 935 0
-1665 -753 0
-1665 -754 0
-1665 -757 0
-1665 -770 952 0
-1665 -770 -819 0
-1665 -770 -867 0
-1665 -770 -891 0
-1665 -770 -750 -767 0
-1665 -771 953 0
-1665 -771 -820 0
-1665 -771 -868 0
-1665 -771 -892 0
-1665 -771 -750 -768 0
-1665 -772 954 0
-1665 -772 -821 0
-1665 -772 -869 0
-1665 -772 -893 0
-1665 -772 -750 -769 0
-1665 -773 0
-1666 779 0
-1666 936 0
-1666 -753 0
-1666 -754 0
-1666 -755 0
-1666 -770 952 0
-1666 -770 -823 0
-1666 -770 -871 0
-1666 -770 -895 0
-1666 -770 -751 -767 0
-1666 -771 953 0
-1666 -771 -824 0
-1666 -771 -872 0
-1666 -771 -896 0
-1666 -771 -751 -768 0
-1666 -772 954 0
-1666 -772 -825 0
-1666 -772 -873 0
-1666 -772 -897 0
-1666 -772 -751 -769 0
-1666 -773 0
-1667 779 0
-1667 937 0
-1667 -753 0
-1667 -754 0
-1667 -755 0
-1667 -756 0
-1667 -770 952 0
-1667 -770 -827 0
-1667 -770 -875 0
-1667 -770 -899 0
-1667 -770 -752 -767 0
-1667 -771 953 0
-1667 -771 -828 0
-1667 -771 -876 0
-1667 -771 -900 0
-1667 -771 -752 -768 0
-1667 -772 954 0
-1667 -772 -829 0
-1667 -772 -877 0
-1667 -772 -901 0
-1667 -772 -752 -769 0
-1667 -773 0
-1668 779 0
-1668 932 0
-1668 -759 0
-1668 -760 0
-1668 -761 0
-1668 -774 952 0
-1668 -774 -807 0
-1668 -774 -855 0
-1668 -774 -879 0
-1668 -774 -747 -767 0
-1668 -775 953 0
-1668 -775 -808 0
-1668 -775 -856 0
-1668 -775 -880 0
-1668 -775 -747 -768 0
-1668 -776 954 0
-1668 -776 -809 0
-1668 -776 -857 0
-1668 -776 -881 0
-1668 -776 -747 -769 0
-1668 -777 0
-1669 779 0
-1669 933 0
-1669 -760 0
-1669 -761 0
-1669 -774 952 0
-1669 -774 -811 0
-1669 -774 -859 0
-1669 -774 -883 0
-1669 -774 -748 -767 0
-1669 -775 953 0
-1669 -775 -812 0
-1669 -775 -860 0
-1669 -775 -884 0
-1669 -775 -748 -768 0
-1669 -776 954 0
-1669 -776 -813 0
-1669 -776 -861 0
-1669 -776 -885 0
-1669 -776 -748 -769 0
-1669 -777 0
-1670 779 0
-1670 934 0
-1670 -761 0
-1670 -774 952 0
-1670 -774 -815 0
-1670 -774 -863 0
-1670 -774 -887 0
-1670 -774 -749 -767 0
-1670 -775 953 0
-1670 -775 -816 0
-1670 -775 -864 0
-1670 -775 -888 0
-1670 -775 -749 -768 0
-1670 -776 954 0
-1670 -776 -817 0
-1670 -776 -865 0
-1670 -776 -889 0
-1670 -776 -749 -769 0
-1670 -777 0
-1671 779 0
-1671 935 0
-1671 -758 0
-1671 -774 952 0
-1671 -774 -819 0
-1671 -774 -867 0
-1671 -774 -891 0
-1671 -774 -750 -767 0
-1671 -775 953 0
-1671 -775 -820 0
-1671 -775 -868 0
-1671 -775 -892 0
-1671 -775 -750 -768 0
-1671 -776 954 0
-1671 -776 -821 0
-1671 -776 -869 0
-1671 -776 -893 0
-1671 -776 -750 -769 0
-1671 -777 0
-1672 779 0
-1672 936 0
-1672 -758 0
-1672 -759 0
-1672 -774 952 0
-1672 -774 -823 0
-1672 -774 -871 0
-1672 -774 -895 0
-1672 -774 -751 -767 0
-1672 -775 953 0
-1672 -775 -824 0
-1672 -775 -872 0
-1672 -775 -896 0
-1672 -775 -751 -768 0
-1672 -776 954 0
-1672 -776 -825 0
-1672 -776 -873 0
-1672 -776 -897 0
-1672 -776 -751 -769 0
-1672 -777 0
-1673 779 0
-1673 937 0
-1673 -758 0
-1673 -759 0
-1673 -760 0
-1673 -774 952 0
-1673 -774 -827 0
-1673 -774 -875 0
-1673 -774 -899 0
-1673 -774 -752 -767 0
-1673 -775 953 0
-1673 -775 -828 0
-1673 -775 -876 0
-1673 -775 -900 0
-1673 -775 -752 -768 0
-1673 -776 954 0
-1673 -776 -829 0
-1673 -776 -877 0
-1673 -776 -901 0
-1673 -776 -752 -769 0
-1673 -777 0
-1674 779 0
-1674 932 0
-1674 951 0
-1674 -806 0
-1674 -854 0
-1674 -878 0
-1674 -747 -766 0
-1675 779 0
-1675 933 0
-1675 951 0
-1675 -810 0
-1675 -858 0
-1675 -882 0
-1675 -748 -766 0
-1676 779 0
-1676 934 0
-1676 951 0
-1676 -814 0
-1676 -862 0
-1676 -886 0
-1676 -749 -766 0
-1677 779 0
-1677 935 0
-1677 951 0
-1677 -818 0
-1677 -866 0
-1677 -890 0
-1677 -750 -766 0
-1678 779 0
-1678 936 0
-1678 951 0
-1678 -822 0
-1678 -870 0
-1678 -894 0
-1678 -751 -766 0
-1679 779 0
-1679 937 0
-1679 951 0
-1679 -826 0
-1679 -874 0
-1679 -898 0
-1679 -752 -766 0
-1680 780 0
-1680 938 0
-1680 -743 0
-1680 -744 0
-1680 -745 0
-1680 -746 0
-1680 -762 956 0
-1680 -762 -807 0
-1680 -762 -811 0
-1680 -762 -831 0
-1680 -762 -835 0
-1680 -762 -879 0
-1680 -762 -883 0
-1680 -762 -753 -771 0
-1680 -763 957 0
-1680 -763 -808 0
-1680 -763 -812 0
-1680 -763 -832 0
-1680 -763 -836 0
-1680 -763 -880 0
-1680 -763 -884 0
-1680 -763 -753 -772 0
-1680 -764 958 0
-1680 -764 -809 0
-1680 -764 -813 0
-1680 -764 -833 0
-1680 -764 -837 0
-1680 -764 -881 0
-1680 -764 -885 0
-1680 -764 -753 -773 0
-1680 -765 0
-1681 780 0
-1681 939 0
-1681 -741 0
-1681 -744 0
-1681 -745 0
-1681 -746 0
-1681 -762 956 0
-1681 -762 -811 0
-1681 -762 -815 0
-1681 -762 -835 0
-1681 -762 -839 0
-1681 -762 -883 0
-1681 -762 -887 0
-1681 -762 -754 -771 0
-1681 -763 957 0
-1681 -763 -812 0
-1681 -763 -816 0
-1681 -763 -836 0
-1681 -763 -840 0
-1681 -763 -884 0
-1681 -763 -888 0
-1681 -763 -754 -772 0
-1681 -764 958 0
-1681 -764 -813 0
-1681 -764 -817 0
-1681 -764 -837 0
-1681 -764 -841 0
-1681 -764 -885 0
-1681 -764 -889 0
-1681 -764 -754 -773 0
-1681 -765 0
-1682 780 0
-1682 940 0
-1682 -741 0
-1682 -742 0
-1682 -745 0
-1682 -746 0
-1682 -762 956 0
-1682 -762 -815 0
-1682 -762 -819 0
-1682 -762 -839 0
-1682 -762 -843 0
-1682 -762 -887 0
-1682 -762 -891 0
-1682 -762 -755 -771 0
-1682 -763 957 0
-1682 -763 -816 0
-1682 -763 -820 0
-1682 -763 -840 0
-1682 -763 -844 0
-1682 -763 -888 0
-1682 -763 -892 0
-1682 -763 -755 -772 0
-1682 -764 958 0
-1682 -764 -817 0
-1682 -764 -821 0
-1682 -764 -841 0
-1682 -764 -845 0
-1682 -764 -889 0
-1682 -764 -893 0
-1682 -764 -755 -773 0
-1682 -765 0
-1683 780 0
-1683 941 0
-1683 -741 0
-1683 -742 0
-1683 -743 0
-1683 -746 0
-1683 -762 956 0
-1683 -762 -819 0
-1683 -762 -823 0
-1683 -762 -843 0
-1683 -762 -847 0
-1683 -762 -891 0
-1683 -762 -895 0
-1683 -762 -756 -771 0
-1683 -763 957 0
-1683 -763 -820 0
-1683 -763 -824 0
-1683 -763 -844 0
-1683 -763 -848 0
-1683 -763 -892 0
-1683 -763 -896 0
-1683 -763 -756 -772 0
-1683 -764 958 0
-1683 -764 -821 0
-1683 -764 -825 0
-1683 -764 -845 0
-1683 -764 -849 0
-1683 -764 -893 0
-1683 -764 -897 0
-1683 -764 -756 -773 0
-1683 -765 0
-1684 780 0
-1684 942 0
-1684 -741 0
-1684 -742 0
-1684 -743 0
-1684 -744 0
-1684 -762 956 0
-1684 -762 -823 0
-1684 -762 -827 0
-1684 -762 -847 0
-1684 -762 -851 0
-1684 -762 -895 0
-1684 -762 -899 0
-1684 -762 -757 -771 0
-1684 -763 957 0
-1684 -763 -824 0
-1684 -763 -828 0
-1684 -763 -848 0
-1684 -763 -852 0
-1684 -763 -896 0
-1684 -763 -900 0
-1684 -763 -757 -772 0
-1684 -764 958 0
-1684 -764 -825 0
-1684 -764 -829 0
-1684 -764 -849 0
-1684 -764 -853 0
-1684 -764 -897 0
-1684 -764 -901 0
-1684 -764 -757 -773 0
-1684 -765 0
-1685 780 0
-1685 938 0
-1685 -749 0
-1685 -750 0
-1685 -751 0
-1685 -752 0
-1685 -766 956 0
-1685 -766 -807 0
-1685 -766 -811 0
-1685 -766 -831 0
-1685 -766 -835 0
-1685 -766 -879 0
-1685 -766 -883 0
-1685 -766 -753 -771 0
-1685 -767 957 0
-1685 -767 -808 0
-1685 -767 -812 0
-1685 -767 -832 0
-1685 -767 -836 0
-1685 -767 -880 0
-1685 -767 -884 0
-1685 -767 -753 -772 0
-1685 -768 958 0
-1685 -768 -809 0
-1685 -768 -813 0
-1685 -768 -833 0
-1685 -768 -837 0
-1685 -768 -881 0
-1685 -768 -885 0
-1685 -768 -753 -773 0
-1685 -769 0
-1686 780 0
-1686 939 0
-1686 -747 0
-1686 -750 0
-1686 -751 0
-1686 -752 0
-1686 -766 956 0
-1686 -766 -811 0
-1686 -766 -815 0
-1686 -766 -835 0
-1686 -766 -839 0
-1686 -766 -883 0
-1686 -766 -887 0
-1686 -766 -754 -771 0
-1686 -767 957 0
-1686 -767 -812 0
-1686 -767 -816 0
-1686 -767 -836 0
-1686 -767 -840 0
-1686 -767 -884 0
-1686 -767 -888 0
-1686 -767 -754 -772 0
-1686 -768 958 0
-1686 -768 -813 0
-1686 -768 -817 0
-1686 -768 -837 0
-1686 -768 -841 0
-1686 -768 -885 0
-1686 -768 -889 0
-1686 -768 -754 -773 0
-1686 -769 0
-1687 780 0
-1687 940 0
-1687 -747 0
-1687 -748 0
-1687 -751 0
-1687 -752 0
-1687 -766 956 0
-1687 -766 -815 0
-1687 -766 -819 0
-1687 -766 -839 0
-1687 -766 -843 0
-1687 -766 -887 0
-1687 -766 -891 0
-1687 -766 -755 -771 0
-1687 -767 957 0
-1687 -767 -816 0
-1687 -767 -820 0
-1687 -767 -840 0
-1687 -767 -844 0
-1687 -767 -888 0
-1687 -767 -892 0
-1687 -767 -755 -772 0
-1687 -768 958 0
-1687 -768 -817 0
-1687 -768 -821 0
-1687 -768 -841 0
-1687 -768 -845 0
-1687 -768 -889 0
-1687 -768 -893 0
-1687 -768 -755 -773 0
-1687 -769 0
-1688 780 0
-1688 941 0
-1688 -747 0
-1688 -748 0
-1688 -749 0
-1688 -752 0
-1688 -766 956 0
-1688 -766 -819 0
-1688 -766 -823 0
-1688 -766 -843 0
-1688 -766 -847 0
-1688 -766 -891 0
-1688 -766 -895 0
-1688 -766 -756 -771 0
-1688 -767 957 0
-1688 -767 -820 0
-1688 -767 -824 0
-1688 -767 -844 0
-1688 -767 -848 0
-1688 -767 -892 0
-1688 -767 -896 0
-1688 -767 -756 -772 0
-1688 -768 958 0
-1688 -768 -821 0
-1688 -768 -825 0
-1688 -768 -845 0
-1688 -768 -849 0
-1688 -768 -893 0
-1688 -768 -897 0
-1688 -768 -756 -773 0
-1688 -769 0
-1689 780 0
-1689 942 0
-1689 -747 0
-1689 -748 0
-1689 -749 0
-1689 -750 0
-1689 -766 956 0
-1689 -766 -823 0
-1689 -766 -827 0
-1689 -766 -847 0
-1689 -766 -851 0
-1689 -766 -895 0
-1689 -766 -899 0
-1689 -766 -757 -771 0
-1689 -767 957 0
-1689 -767 -824 0
-1689 -767 -828 0
-1689 -767 -848 0
-1689 -767 -852 0
-1689 -767 -896 0
-1689 -767 -900 0
-1689 -767 -757 -772 0
-1689 -768 958 0
-1689 -768 -825 0
-1689 -768 -829 0
-1689 -768 -849 0
-1689 -768 -853 0
-1689 -768 -897 0
-1689 -768 -901 0
-1689 -768 -757 -773 0
-1689 -769 0
-1690 780 0
-1690 938 0
-1690 -760 0
-1690 -761 0
-1690 -774 956 0
-1690 -774 -807 0
-1690 -774 -811 0
-1690 -774 -831 0
-1690 -774 -835 0
-1690 -774 -879 0
-1690 -774 -883 0
-1690 -774 -753 -771 0
-1690 -775 957 0
-1690 -775 -808 0
-1690 -775 -812 0
-1690 -775 -832 0
-1690 -775 -836 0
-1690 -775 -880 0
-1690 -775 -884 0
-1690 -775 -753 -772 0
-1690 -776 958 0
-1690 -776 -809 0
-1690 -776 -813 0
-1690 -776 -833 0
-1690 -776 -837 0
-1690 -776 -881 0
-1690 -776 -885 0
-1690 -776 -753 -773 0
-1690 -777 0
-1691 780 0
-1691 939 0
-1691 -761 0
-1691 -774 956 0
-1691 -774 -811 0
-1691 -774 -815 0
-1691 -774 -835 0
-1691 -774 -839 0
-1691 -774 -883 0
-1691 -774 -887 0
-1691 -774 -754 -771 0
-1691 -775 957 0
-1691 -775 -812 0
-1691 -775 -816 0
-1691 -775 -836 0
-1691 -775 -840 0
-1691 -775 -884 0
-1691 -775 -888 0
-1691 -775 -754 -772 0
-1691 -776 958 0
-1691 -776 -813 0
-1691 -776 -817 0
-1691 -776 -837 0
-1691 -776 -841 0
-1691 -776 -885 0
-1691 -776 -889 0
-1691 -776 -754 -773 0
-1691 -777 0
-1692 780 0
-1692 940 0
-1692 -774 956 0
-1692 -774 -815 0
-1692 -774 -819 0
-1692 -774 -839 0
-1692 -774 -843 0
-1692 -774 -887 0
-1692 -774 -891 0
-1692 -774 -755 -771 0
-1692 -775 957 0
-1692 -775 -816 0
-1692 -775 -820 0
-1692 -775 -840 0
-1692 -775 -844 0
-1692 -775 -888 0
-1692 -775 -892 0
-1692 -775 -755 -772 0
-1692 -776 958 0
-1692 -776 -817 0
-1692 -776 -821 0
-1692 -776 -841 0
-1692 -776 -845 0
-1692 -776 -889 0
-1692 -776 -893 0
-1692 -776 -755 -773 0
-1692 -777 0
-1693 780 0
-1693 941 0
-1693 -758 0
-1693 -774 956 0
-1693 -774 -819 0
-1693 -774 -823 0
-1693 -774 -843 0
-1693 -774 -847 0
-1693 -774 -891 0
-1693 -774 -895 0
-1693 -774 -756 -771 0
-1693 -775 957 0
-1693 -775 -820 0
-1693 -775 -824 0
-1693 -775 -844 0
-1693 -775 -848 0
-1693 -775 -892 0
-1693 -775 -896 0
-1693 -775 -756 -772 0
-1693 -776 958 0
-1693 -776 -821 0
-1693 -776 -825 0
-1693 -776 -845 0
-1693 -776 -849 0
-1693 -776 -893 0
-1693 -776 -897 0
-1693 -776 -756 -773 0
-1693 -777 0
-1694 780 0
-1694 942 0
-1694 -758 0
-1694 -759 0
-1694 -774 956 0
-1694 -774 -823 0
-1694 -774 -827 0
-1694 -774 -847 0
-1694 -774 -851 0
-1694 -774 -895 0
-1694 -774 -899 0
-1694 -774 -757 -771 0
-1694 -775 957 0
-1694 -775 -824 0
-1694 -775 -828 0
-1694 -775 -848 0
-1694 -775 -852 0
-1694 -775 -896 0
-1694 -775 -900 0
-1694 -775 -757 -772 0
-1694 -776 958 0
-1694 -776 -825 0
-1694 -776 -829 0
-1694 -776 -849 0
-1694 -776 -853 0
-1694 -776 -897 0
-1694 -776 -901 0
-1694 -776 -757 -773 0
-1694 -777 0
-1695 780 0
-1695 938 0
-1695 955 0
-1695 -806 0
-1695 -810 0
-1695 -830 0
-1695 -834 0
-1695 -878 0
-1695 -882 0
-1695 -753 -770 0
-1696 780 0
-1696 939 0
-1696 955 0
-1696 -810 0
-1696 -814 0
-1696 -834 0
-1696 -838 0
-1696 -882 0
-1696 -886 0
-1696 -754 -770 0
-1697 780 0
-1697 940 0
-1697 955 0
-1697 -814 0
-1697 -818 0
-1697 -838 0
-1697 -842 0
-1697 -886 0
-1697 -890 0
-1697 -755 -770 0
-1698 780 0
-1698 941 0
-1698 955 0
-1698 -818 0
-1698 -822 0
-1698 -842 0
-1698 -846 0
-1698 -890 0
-1698 -894 0
-1698 -756 -770 0
-1699 780 0
-1699 942 0
-1699 955 0
-1699 -822 0
-1699 -826 0
-1699 -846 0
-1699 -850 0
-1699 -894 0
-1699 -898 0
-1699 -757 -770 0
-1700 781 0
-1700 943 0
-1700 -744 0
-1700 -745 0
-1700 -746 0
-1700 -762 960 0
-1700 -762 -807 0
-1700 -762 -811 0
-1700 -762 -815 0
-1700 -762 -831 0
-1700 -762 -835 0
-1700 -762 -839 0
-1700 -762 -855 0
-1700 -762 -859 0
-1700 -762 -863 0
-1700 -762 -758 -775 0
-1700 -763 961 0
-1700 -763 -808 0
-1700 -763 -812 0
-1700 -763 -816 0
-1700 -763 -832 0
-1700 -763 -836 0
-1700 -763 -840 0
-1700 -763 -856 0
-1700 -763 -860 0
-1700 -763 -864 0
-1700 -763 -758 -776 0
-1700 -764 962 0
-1700 -764 -809 0
-1700 -764 -813 0
-1700 -764 -817 0
-1700 -764 -833 0
-1700 -764 -837 0
-1700 -764 -841 0
-1700 -764 -857 0
-1700 -764 -861 0
-1700 -764 -865 0
-1700 -764 -758 -777 0
-1700 -765 0
-1701 781 0
-1701 944 0
-1701 -741 0
-1701 -745 0
-1701 -746 0
-1701 -762 960 0
-1701 -762 -811 0
-1701 -762 -815 0
-1701 -762 -819 0
-1701 -762 -835 0
-1701 -762 -839 0
-1701 -762 -843 0
-1701 -762 -859 0
-1701 -762 -863 0
-1701 -762 -867 0
-1701 -762 -759 -775 0
-1701 -763 961 0
-1701 -763 -812 0
-1701 -763 -816 0
-1701 -763 -820 0
-1701 -763 -836 0
-1701 -763 -840 0
-1701 -763 -844 0
-1701 -763 -860 0
-1701 -763 -864 0
-1701 -763 -868 0
-1701 -763 -759 -776 0
-1701 -764 962 0
-1701 -764 -813 0
-1701 -764 -817 0
-1701 -764 -821 0
-1701 -764 -837 0
-1701 -764 -841 0
-1701 -764 -845 0
-1701 -764 -861 0
-1701 -764 -865 0
-1701 -764 -869 0
-1701 -764 -759 -777 0
-1701 -765 0
-1702 781 0
-1702 945 0
-1702 -741 0
-1702 -742 0
-1702 -746 0
-1702 -762 960 0
-1702 -762 -815 0
-1702 -762 -819 0
-1702 -762 -823 0
-1702 -762 -839 0
-1702 -762 -843 0
-1702 -762 -847 0
-1702 -762 -863 0
-1702 -762 -867 0
-1702 -762 -871 0
-1702 -762 -760 -775 0
-1702 -763 961 0
-1702 -763 -816 0
-1702 -763 -820 0
-1702 -763 -824 0
-1702 -763 -840 0
-1702 -763 -844 0
-1702 -763 -848 0
-1702 -763 -864 0
-1702 -763 -868 0
-1702 -763 -872 0
-1702 -763 -760 -776 0
-1702 -764 962 0
-1702 -764 -817 0
-1702 -764 -821 0
-1702 -764 -825 0
-1702 -764 -841 0
-1702 -764 -845 0
-1702 -764 -849 0
-1702 -764 -865 0
-1702 -764 -869 0
-1702 -764 -873 0
-1702 -764 -760 -777 0
-1702 -765 0
-1703 781 0
-1703 946 0
-1703 -741 0
-1703 -742 0
-1703 -743 0
-1703 -762 960 0
-1703 -762 -819 0
-1703 -762 -823 0
-1703 -762 -827 0
-1703 -762 -843 0
-1703 -762 -847 0
-1703 -762 -851 0
-1703 -762 -867 0
-1703 -762 -871 0
-1703 -762 -875 0
-1703 -762 -761 -775 0
-1703 -763 961 0
-1703 -763 -820 0
-1703 -763 -824 0
-1703 -763 -828 0
-1703 -763 -844 0
-1703 -763 -848 0
-1703 -763 -852 0
-1703 -763 -868 0
-1703 -763 -872 0
-1703 -763 -876 0
-1703 -763 -761 -776 0
-1703 -764 962 0
-1703 -764 -821 0
-1703 -764 -825 0
-1703 -764 -829 0
-1703 -764 -845 0
-1703 -764 -849 0
-1703 -764 -853 0
-1703 -764 -869 0
-1703 -764 -873 0
-1703 -764 -877 0
-1703 -764 -761 -777 0
-1703 -765 0
-1704 781 0
-1704 943 0
-1704 -750 0
-1704 -751 0
-1704 -752 0
-1704 -766 960 0
-1704 -766 -807 0
-1704 -766 -811 0
-1704 -766 -815 0
-1704 -766 -831 0
-1704 -766 -835 0
-1704 -766 -839 0
-1704 -766 -855 0
-1704 -766 -859 0
-1704 -766 -863 0
-1704 -766 -758 -775 0
-1704 -767 961 0
-1704 -767 -808 0
-1704 -767 -812 0
-1704 -767 -816 0
-1704 -767 -832 0
-1704 -767 -836 0
-1704 -767 -840 0
-1704 -767 -856 0
-1704 -767 -860 0
-1704 -767 -864 0
-1704 -767 -758 -776 0
-1704 -768 962 0
-1704 -768 -809 0
-1704 -768 -813 0
-1704 -768 -817 0
-1704 -768 -833 0
-1704 -768 -837 0
-1704 -768 -841 0
-1704 -768 -857 0
-1704 -768 -861 0
-1704 -768 -865 0
-1704 -768 -758 -777 0
-1704 -769 0
-1705 781 0
-1705 944 0
-1705 -747 0
-1705 -751 0
-1705 -752 0
-1705 -766 960 0
-1705 -766 -811 0
-1705 -766 -815 0
-1705 -766 -819 0
-1705 -766 -835 0
-1705 -766 -839 0
-1705 -766 -843 0
-1705 -766 -859 0
-1705 -766 -863 0
-1705 -766 -867 0
-1705 -766 -759 -775 0
-1705 -767 961 0
-1705 -767 -812 0
-1705 -767 -816 0
-1705 -767 -820 0
-1705 -767 -836 0
-1705 -767 -840 0
-1705 -767 -844 0
-1705 -767 -860 0
-1705 -767 -864 0
-1705 -767 -868 0
-1705 -767 -759 -776 0
-1705 -768 962 0
-1705 -768 -813 0
-1705 -768 -817 0
-1705 -768 -821 0
-1705 -768 -837 0
-1705 -768 -841 0
-1705 -768 -845 0
-1705 -768 -861 0
-1705 -768 -865 0
-1705 -768 -869 0
-1705 -768 -759 -777 0
-1705 -769 0
-1706 781 0
-1706 945 0
-1706 -747 0
-1706 -748 0
-1706 -752 0
-1706 -766 960 0
-1706 -766 -815 0
-1706 -766 -819 0
-1706 -766 -823 0
-1706 -766 -839 0
-1706 -766 -843 0
-1706 -766 -847 0
-1706 -766 -863 0
-1706 -766 -867 0
-1706 -766 -871 0
-1706 -766 -760 -775 0
-1706 -767 961 0
-1706 -767 -816 0
-1706 -767 -820 0
-1706 -767 -824 0
-1706 -767 -840 0
-1706 -767 -844 0
-1706 -767 -848 0
-1706 -767 -864 0
-1706 -767 -868 0
-1706 -767 -872 0
-1706 -767 -760 -776 0
-1706 -768 962 0
-1706 -768 -817 0
-1706 -768 -821 0
-1706 -768 -825 0
-1706 -768 -841 0
-1706 -768 -845 0
-1706 -768 -849 0
-1706 -768 -865 0
-1706 -768 -869 0
-1706 -768 -873 0
-1706 -768 -760 -777 0
-1706 -769 0
-1707 781 0
-1707 946 0
-1707 -747 0
-1707 -748 0
-1707 -749 0
-1707 -766 960 0
-1707 -766 -819 0
-1707 -766 -823 0
-1707 -766 -827 0
-1707 -766 -843 0
-1707 -766 -847 0
-1707 -766 -851 0
-1707 -766 -867 0
-1707 -766 -871 0
-1707 -766 -875 0
-1707 -766 -761 -775 0
-1707 -767 961 0
-1707 -767 -820 0
-1707 -767 -824 0
-1707 -767 -828 0
-1707 -767 -844 0
-1707 -767 -848 0
-1707 -767 -852 0
-1707 -767 -868 0
-1707 -767 -872 0
-1707 -767 -876 0
-1707 -767 -761 -776 0
-1707 -768 962 0
-1707 -768 -821 0
-1707 -768 -825 0
-1707 -768 -829 0
-1707 -768 -845 0
-1707 -768 -849 0
-1707 -768 -853 0
-1707 -768 -869 0
-1707 -768 -873 0
-1707 -768 -877 0
-1707 -768 -761 -777 0
-1707 -769 0
-1708 781 0
-1708 943 0
-1708 -756 0
-1708 -757 0
-1708 -770 960 0
-1708 -770 -807 0
-1708 -770 -811 0
-1708 -770 -815 0
-1708 -770 -831 0
-1708 -770 -835 0
-1708 -770 -839 0
-1708 -770 -855 0
-1708 -770 -859 0
-1708 -770 -863 0
-1708 -770 -758 -775 0
-1708 -771 961 0
-1708 -771 -808 0
-1708 -771 -812 0
-1708 -771 -816 0
-1708 -771 -832 0
-1708 -771 -836 0
-1708 -771 -840 0
-1708 -771 -856 0
-1708 -771 -860 0
-1708 -771 -864 0
-1708 -771 -758 -776 0
-1708 -772 962 0
-1708 -772 -809 0
-1708 -772 -813 0
-1708 -772 -817 0
-1708 -772 -833 0
-1708 -772 -837 0
-1708 -772 -841 0
-1708 -772 -857 0
-1708 -772 -861 0
-1708 -772 -865 0
-1708 -772 -758 -777 0
-1708 -773 0
-1709 781 0
-1709 944 0
-1709 -757 0
-1709 -770 960 0
-1709 -770 -811 0
-1709 -770 -815 0
-1709 -770 -819 0
-1709 -770 -835 0
-1709 -770 -839 0
-1709 -770 -843 0
-1709 -770 -859 0
-1709 -770 -863 0
-1709 -770 -867 0
-1709 -770 -759 -775 0
-1709 -771 961 0
-1709 -771 -812 0
-1709 -771 -816 0
-1709 -771 -820 0
-1709 -771 -836 0
-1709 -771 -840 0
-1709 -771 -844 0
-1709 -771 -860 0
-1709 -771 -864 0
-1709 -771 -868 0
-1709 -771 -759 -776 0
-1709 -772 962 0
-1709 -772 -813 0
-1709 -772 -817 0
-1709 -772 -821 0
-1709 -772 -837 0
-1709 -772 -841 0
-1709 -772 -845 0
-1709 -772 -861 0
-1709 -772 -865 0
-1709 -772 -869 0
-1709 -772 -759 -777 0
-1709 -773 0
-1710 781 0
-1710 945 0
-1710 -753 0
-1710 -770 960 0
-1710 -770 -815 0
-1710 -770 -819 0
-1710 -770 -823 0
-1710 -770 -839 0
-1710 -770 -843 0
-1710 -770 -847 0
-1710 -770 -863 0
-1710 -770 -867 0
-1710 -770 -871 0
-1710 -770 -760 -775 0
-1710 -771 961 0
-1710 -771 -816 0
-1710 -771 -820 0
-1710 -771 -824 0
-1710 -771 -840 0
-1710 -771 -844 0
-1710 -771 -848 0
-1710 -771 -864 0
-1710 -771 -868 0
-1710 -771 -872 0
-1710 -771 -760 -776 0
-1710 -772 962 0
-1710 -772 -817 0
-1710 -772 -821 0
-1710 -772 -825 0
-1710 -772 -841 0
-1710 -772 -845 0
-1710 -772 -849 0
-1710 -772 -865 0
-1710 -772 -869 0
-1710 -772 -873 0
-1710 -772 -760 -777 0
-1710 -773 0
-1711 781 0
-1711 946 0
-1711 -753 0
-1711 -754 0
-1711 -770 960 0
-1711 -770 -819 0
-1711 -770 -823 0
-1711 -770 -827 0
-1711 -770 -843 0
-1711 -770 -847 0
-1711 -770 -851 0
-1711 -770 -867 0
-1711 -770 -871 0
-1711 -770 -875 0
-1711 -770 -761 -775 0
-1711 -771 961 0
-1711 -771 -820 0
-1711 -771 -824 0
-1711 -771 -828 0
-1711 -771 -844 0
-1711 -771 -848 0
-1711 -771 -852 0
-1711 -771 -868 0
-1711 -771 -872 0
-1711 -771 -876 0
-1711 -771 -761 -776 0
-1711 -772 962 0
-1711 -772 -821 0
-1711 -772 -825 0
-1711 -772 -829 0
-1711 -772 -845 0
-1711 -772 -849 0
-1711 -772 -853 0
-1711 -772 -869 0
-1711 -772 -873 0
-1711 -772 -877 0
-1711 -772 -761 -777 0
-1711 -773 0
-1712 781 0
-1712 943 0
-1712 959 0
-1712 -806 0
-1712 -810 0
-1712 -814 0
-1712 -830 0
-1712 -834 0
-1712 -838 0
-1712 -854 0
-1712 -858 0
-1712 -862 0
-1712 -758 -774 0
-1713 781 0
-1713 944 0
-1713 959 0
-1713 -810 0
-1713 -814 0
-1713 -818 0
-1713 -834 0
-1713 -838 0
-1713 -842 0
-1713 -858 0
-1713 -862 0
-1713 -866 0
-1713 -759 -774 0
-1714 781 0
-1714 945 0
-1714 959 0
-1714 -814 0
-1714 -818 0
-1714 -822 0
-1714 -838 0
-1714 -842 0
-1714 -846 0
-1714 -862 0
-1714 -866 0
-1714 -870 0
-1714 -760 -774 0
-1715 781 0
-1715 946 0
-1715 959 0
-1715 -818 0
-1715 -822 0
-1715 -826 0
-1715 -842 0
-1715 -846 0
-1715 -850 0
-1715 -866 0
-1715 -870 0
-1715 -874 0
-1715 -761 -774 0
-741 926 1632 1633 1634 1635 1636 1637 1638 1639 1640 1641 1642 1643 1644 1645 1646 1647 1648 1649 1650 1651 1652 1653 1654 1655 0
-742 927 1632 1633 1634 1635 1636 1637 1638 1639 1640 1641 1642 1643 1644 1645 1646 1647 1648 1649 1650 1651 1652 1653 1654 1655 0
-743 928 1632 1633 1634 1635 1636 1637 1638 1639 1640 1641 1642 1643 1644 1645 1646 1647 1648 1649 1650 1651 1652 1653 1654 1655 0
-744 929 1632 1633 1634 1635 1636 1637 1638 1639 1640 1641 1642 1643 1644 1645 1646 1647 1648 1649 1650 1651 1652 1653 1654 1655 0
-745 930 1632 1633 1634 1635 1636 1637 1638 1639 1640 1641 1642 1643 1644 1645 1646 1647 1648 1649 1650 1651 1652 1653 1654 1655 0
-746 931 1632 1633 1634 1635 1636 1637 1638 1639 1640 1641 1642 1643 1644 1645 1646 1647 1648 1649 1650 1651 1652 1653 1654 1655 0
-762 947 1632 1633 1634 1635 1636 1637 1638 1639 1640 1641 1642 1643 1644 1645 1646 1647 1648 1649 1650 1651 1652 1653 1654 1655 0
-763 948 1632 1633 1634 1635 1636 1637 1638 1639 1640 1641 1642 1643 1644 1645 1646 1647 1648 1649 1650 1651 1652 1653 1654 1655 0
-764 949 1632 1633 1634 1635 1636 1637 1638 1639 1640 1641 1642 1643 1644 1645 1646 1647 1648 1649 1650 1651 1652 1653 1654 1655 0
-765 950 1632 1633 1634 1635 1636 1637 1638 1639 1640 1641 1642 1643 1644 1645 1646 1647 1648 1649 1650 1651 1652 1653 1654 1655 0
-747 932 1656 1657 1658 1659 1660 1661 1662 1663 1664 1665 1666 1667 1668 1669 1670 1671 1672 1673 1674 1675 1676 1677 1678 1679 0
-748 933 1656 1657 1658 1659 1660 1661 1662 1663 1664 1665 1666 1667 1668 1669 1670 1671 1672 1673 1674 1675 1676 1677 1678 1679 0
-749 934 1656 1657 1658 1659 1660 1661 1662 1663 1664 1665 1666 1667 1668 1669 1670 1671 1672 1673 1674 1675 1676 1677 1678 1679 0
-750 935 1656 1657 1658 1659 1660 1661 1662 1663 1664 1665 1666 1667 1668 1669 1670 1671 1672 1673 1674 1675 1676 1677 1678 1679 0
-751 936 1656 1657 1658 1659 1660 1661 1662 1663 1664 1665 1666 1667 1668 1669 1670 1671 1672 1673 1674 1675 1676 1677 1678 1679 0
-752 937 1656 1657 1658 1659 1660 1661 1662 1663 1664 1665 1666 1667 1668 1669 1670 1671 1672 1673 1674 1675 1676 1677 1678 1679 0
-766 951 1656 1657 1658 1659 1660 1661 1662 1663 1664 1665 1666 1667 1668 1669 1670 1671 1672 1673 1674 1675 1676 1677 1678 1679 0
-767 952 1656 1657 1658 1659 1660 1661 1662 1663 1664 1665 1666 1667 1668 1669 1670 1671 1672 1673 1674 1675 1676 1677 1678 1679 0
-768 953 1656 1657 1658 1659 1660 1661 1662 1663 1664 1665 1666 1667 1668 1669 1670 1671 1672 1673 1674 1675 1676 1677 1678 1679 0
-769 954 1656 1657 1658 1659 1660 1661 1662 1663 1664 1665 1666 1667 1668 1669 1670 1671 1672 1673 1674 1675 1676 1677 1678 1679 0
-753 938 1680 1681 1682 1683 1684 1685 1686 1687 1688 1689 1690 1691 1692 1693 1694 1695 1696 1697 1698 1699 0
-754 939 1680 1681 1682 1683 1684 1685 1686 1687 1688 1689 1690 1691 1692 1693 1694 1695 1696 1697 1698 1699 0
-755 940 1680 1681 1682 1683 1684 1685 1686 1687 1688 1689 1690 1691 1692 1693 1694 1695 1696 1697 1698 1699 0
-756 941 1680 1681 1682 1683 1684 1685 1686 1687 1688 1689 1690 1691 1692 1693 1694 1695 1696 1697 1698 1699 0
-757 942 1680 1681 1682 1683 1684 1685 1686 1687 1688 1689 1690 1691 1692 1693 1694 1695 1696 1697 1698 1699 0
-770 955 1680 1681 1682 1683 1684 1685 1686 1687 1688 1689 1690 1691 1692 1693 1694 1695 1696 1697 1698 1699 0
-771 956 1680 1681 1682 1683 1684 1685 1686 1687 1688 1689 1690 1691 1692 1693 1694 1695 1696 1697 1698 1699 0
-772 957 1680 1681 1682 1683 1684 1685 1686 1687 1688 1689 1690 1691 1692 1693 1694 1695 1696 1697 1698 1699 0
-773 958 1680 1681 1682 1683 1684 1685 1686 1687 1688 1689 1690 1691 1692 1693 1694 1695 1696 1697 1698 1699 0
-758 943 1700 1701 1702 1703 1704 1705 1706 1707 1708 1709 1710 1711 1712 1713 1714 1715 0
-759 944 1700 1701 1702 1703 1704 1705 1706 1707 1708 1709 1710 1711 1712 1713 1714 1715 0
-760 945 1700 1701 1702 1703 1704 1705 1706 1707 1708 1709 1710 1711 1712 1713 1714 1715 0
-761 946 1700 1701 1702 1703 1704 1705 1706 1707 1708 1709 1710 1711 1712 1713 1714 1715 0
-774 959 1700 1701 1702 1703 1704 1705 1706 1707 1708 1709 1710 1711 1712 1713 1714 1715 0
-775 960 1700 1701 1702 1703 1704 1705 1706 1707 1708 1709 1710 1711 1712 1713 1714 1715 0
-776 961 1700 1701 1702 1703 1704 1705 1706 1707 1708 1709 1710 1711 1712 1713 1714 1715 0
-777 962 1700 1701 1702 1703 1704 1705 1706 1707 1708 1709 1710 1711 1712 1713 1714 1715 0
-1716 -1717 0
-1716 -1718 0
-1716 -1719 0
-1716 -1720 0
-1716 -1721 0
-1716 -1722 0
-1716 -1723 0
-1716 -1724 0
-1716 -1725 0
-1716 -1726 0
-1716 -1727 0
-1716 -1728 0
-1716 -1729 0
-1716 -1730 0
-1716 -1731 0
-1716 -1732 0
-1716 -1733 0
-1716 -1734 0
-1716 -1735 0
-1716 -1736 0
-1716 -1737 0
-1716 -1738 0
-1716 -1739 0
-1716 -1740 0
-1716 -1741 0
-1716 -1742 0
-1716 -1743 0
-1716 -1744 0
-1716 -1745 0
-1716 -1746 0
-1716 -1747 0
-1716 -1748 0
-1716 -1749 0
-1716 -1750 0
-1716 -1751 0
-1716 -1752 0
-1716 -1753 0
-1716 -1754 0
-1716 -1755 0
-1716 -1756 0
-1716 -1757 0
-1716 -1758 0
-1716 -1759 0
-1716 -1760 0
-1716 -1761 0
-1716 -1762 0
-1716 -1763 0
-1716 -1764 0
-1716 -1765 0
-1716 -1766 0
-1716 -1767 0
-1716 -1768 0
-1716 -1769 0
-1716 -1770 0
-1716 -1771 0
-1716 -1772 0
-1716 -1773 0
-1716 -1774 0
-1716 -1775 0
-1716 -1776 0
-1716 -1777 0
-1716 -1778 0
-1716 -1779 0
-1716 -1780 0
-1716 -1781 0
-1716 -1782 0
-1716 -1783 0
-1716 -1784 0
-1716 -1785 0
-1716 -1786 0
-1716 -1787 0
-1716 -1788 0
-1716 -1789 0
-1716 -1790 0
-1716 -1791 0
-1716 -1792 0
-1716 -1793 0
-1716 -1794 0
-1716 -1795 0
-1716 -1796 0
-1716 -1797 0
-1716 -1798 0
-1716 -1799 0
-1717 -1718 0
-1717 -1719 0
-1717 -1720 0
-1717 -1721 0
-1717 -1722 0
-1717 -1723 0
-1717 -1724 0
-1717 -1725 0
-1717 -1726 0
-1717 -1727 0
-1717 -1728 0
-1717 -1729 0
-1717 -1730 0
-1717 -1731 0
-1717 -1732 0
-1717 -1733 0
-1717 -1734 0
-1717 -1735 0
-1717 -1736 0
-1717 -1737 0
-1717 -1738 0
-1717 -1739 0
-1717 -1740 0
-1717 -1741 0
-1717 -1742 0
-1717 -1743 0
-1717 -1744 0
-1717 -1745 0
-1717 -1746 0
-1717 -1747 0
-1717 -1748 0
-1717 -1749 0
-1717 -1750 0
-1717 -1751 0
-1717 -1752 0
-1717 -1753 0
-1717 -1754 0
-1717 -1755 0
-1717 -1756 0
-1717 -1757 0
-1717 -1758 0
-1717 -1759 0
-1717 -1760 0
-1717 -1761 0
-1717 -1762 0
-1717 -1763 0
-1717 -1764 0
-1717 -1765 0
-1717 -1766 0
-1717 -1767 0
-1717 -1768 0
-1717 -1769 0
-1717 -1770 0
-1717 -1771 0
-1717 -1772 0
-1717 -1773 0
-1717 -1774 0
-1717 -1775 0
-1717 -1776 0
-1717 -1777 0
-1717 -1778 0
-1717 -1779 0
-1717 -1780 0
-1717 -1781 0
-1717 -1782 0
-1717 -1783 0
-1717 -1784 0
-1717 -1785 0
-1717 -1786 0
-1717 -1787 0
-1717 -1788 0
-1717 -1789 0
-1717 -1790 0
-1717 -1791 0
-1717 -1792 0
-1717 -1793 0
-1717 -1794 0
-1717 -1795 0
-1717 -1796 0
-1717 -1797 0
-1717 -1798 0
-1717 -1799 0
-1718 -1719 0
-1718 -1720 0
-1718 -1721 0
-1718 -1722 0
-1718 -1723 0
-1718 -1724 0
-1718 -1725 0
-1718 -1726 0
-1718 -1727 0
-1718 -1728 0
-1718 -1729 0
-1718 -1730 0
-1718 -1731 0
-1718 -1732 0
-1718 -1733 0
-1718 -1734 0
-1718 -1735 0
-1718 -1736 0
-1718 -1737 0
-1718 -1738 0
-1718 -1739 0
-1718 -1740 0
-1718 -1741 0
-1718 -1742 0
-1718 -1743 0
-1718 -1744 0
-1718 -1745 0
-1718 -1746 0
-1718 -1747 0
-1718 -1748 0
-1718 -1749 0
-1718 -1750 0
-1718 -1751 0
-1718 -1752 0
-1718 -1753 0
-1718 -1754 0
-1718 -1755 0
-1718 -1756 0
-1718 -1757 0
-1718 -1758 0
-1718 -1759 0
-1718 -1760 0
-1718 -1761 0
-1718 -1762 0
-1718 -1763 0
-1718 -1764 0
-1718 -1765 0
-1718 -1766 0
-1718 -1767 0
-1718 -1768 0
-1718 -1769 0
-1718 -1770 0
-1718 -1771 0
-1718 -1772 0
-1718 -1773 0
-1718 -1774 0
-1718 -1775 0
-1718 -1776 0
-1718 -1777 0
-1718 -1778 0
-1718 -1779 0
-1718 -1780 0
-1718 -1781 0
-1718 -1782 0
-1718 -1783 0
-1718 -1784 0
-1718 -1785 0
-1718 -1786 0
-1718 -1787 0
-1718 -1788 0
-1718 -1789 0
-1718 -1790 0
-1718 -1791 0
-1718 -1792 0
-1718 -1793 0
-1718 -1794 0
-1718 -1795 0
-1718 -1796 0
-1718 -1797 0
-1718 -1798 0
-1718 -1799 0
-1719 -1720 0
-1719 -1721 0
-1719 -1722 0
-1719 -1723 0
-1719 -1724 0
-1719 -1725 0
-1719 -1726 0
-1719 -1727 0
-1719 -1728 0
-1719 -1729 0
-1719 -1730 0
-1719 -1731 0
-1719 -1732 0
-1719 -1733 0
-1719 -1734 0
-1719 -1735 0
-1719 -1736 0
-1719 -1737 0
-1719 -1738 0
-1719 -1739 0
-1719 -1740 0
-1719 -1741 0
-1719 -1742 0
-1719 -1743 0
-1719 -1744 0
-1719 -1745 0
-1719 -1746 0
-1719 -1747 0
-1719 -1748 0
-1719 -1749 0
-1719 -1750 0
-1719 -1751 0
-1719 -1752 0
-1719 -1753 0
-1719 -1754 0
-1719 -1755 0
-1719 -1756 0
-1719 -1757 0
-1719 -1758 0
-1719 -1759 0
-1719 -1760 0
-1719 -1761 0
-1719 -1762 0
-1719 -1763 0
-1719 -1764 0
-1719 -1765 0
-1719 -1766 0
-1719 -1767 0
-1719 -1768 0
-1719 -1769 0
-1719 -1770 0
-1719 -1771 0
-1719 -1772 0
-1719 -1773 0
-1719 -1774 0
-1719 -1775 0
-1719 -1776 0
-1719 -1777 0
-1719 -1778 0
-1719 -1779 0
-1719 -1780 0
-1719 -1781 0
-1719 -1782 0
-1719 -1783 0
-1719 -1784 0
-1719 -1785 0
-1719 -1786 0
-1719 -1787 0
-1719 -1788 0
-1719 -1789 0
-1719 -1790 0
-1719 -1791 0
-1719 -1792 0
-1719 -1793 0
-1719 -1794 0
-1719 -1795 0
-1719 -1796 0
-1719 -1797 0
-1719 -1798 0
-1719 -1799 0
-1720 -1721 0
-1720 -1722 0
-1720 -1723 0
-1720 -1724 0
-1720 -1725 0
-1720 -1726 0
-1720 -1727 0
-1720 -1728 0
-1720 -1729 0
-1720 -1730 0
-1720 -1731 0
-1720 -1732 0
-1720 -1733 0
-1720 -1734 0
-1720 -1735 0
-1720 -1736 0
-1720 -1737 0
-1720 -1738 0
-1720 -1739 0
-1720 -1740 0
-1720 -1741 0
-1720 -1742 0
-1720 -1743 0
-1720 -1744 0
-1720 -1745 0
-1720 -1746 0
-1720 -1747 0
-1720 -1748 0
-1720 -1749 0
-1720 -1750 0
-1720 -1751 0
-1720 -1752 0
-1720 -1753 0
-1720 -1754 0
-1720 -1755 0
-1720 -1756 0
-1720 -1757 0
-1720 -1758 0
-1720 -1759 0
-1720 -1760 0
-1720 -1761 0
-1720 -1762 0
-1720 -1763 0
-1720 -1764 0
-1720 -1765 0
-1720 -1766 0
-1720 -1767 0
-1720 -1768 0
-1720 -1769 0
-1720 -1770 0
-1720 -1771 0
-1720 -1772 0
-1720 -1773 0
-1720 -1774 0
-1720 -1775 0
-1720 -1776 0
-1720 -1777 0
-1720 -1778 0
-1720 -1779 0
-1720 -1780 0
-1720 -1781 0
-1720 -1782 0
-1720 -1783 0
-1720 -1784 0
-1720 -1785 0
-1720 -1786 0
-1720 -1787 0
-1720 -1788 0
-1720 -1789 0
-1720 -1790 0
-1720 -1791 0
-1720 -1792 0
-1720 -1793 0
-1720 -1794 0
-1720 -1795 0
-1720 -1796 0
-1720 -1797 0
-1720 -1798 0
-1720 -1799 0
-1721 -1722 0
-1721 -1723 0
-1721 -1724 0
-1721 -1725 0
-1721 -1726 0
-1721 -1727 0
-1721 -1728 0
-1721 -1729 0
-1721 -1730 0
-1721 -1731 0
-1721 -1732 0
-1721 -1733 0
-1721 -1734 0
-1721 -1735 0
-1721 -1736 0
-1721 -1737 0
-1721 -1738 0
-1721 -1739 0
-1721 -1740 0
-1721 -1741 0
-1721 -1742 0
-1721 -1743 0
-1721 -1744 0
-1721 -1745 0
-1721 -1746 0
-1721 -1747 0
-1721 -1748 0
-1721 -1749 0
-1721 -1750 0
-1721 -1751 0
-1721 -1752 0
-1721 -1753 0
-1721 -1754 0
-1721 -1755 0
-1721 -1756 0
-1721 -1757 0
-1721 -1758 0
-1721 -1759 0
-1721 -1760 0
-1721 -1761 0
-1721 -1762 0
-1721 -1763 0
-1721 -1764 0
-1721 -1765 0
-1721 -1766 0
-1721 -1767 0
-1721 -1768 0
-1721 -1769 0
-1721 -1770 0
-1721 -1771 0
-1721 -1772 0
-1721 -1773 0
-1721 -1774 0
-1721 -1775 0
-1721 -1776 0
-1721 -1777 0
-1721 -1778 0
-1721 -1779 0
-1721 -1780 0
-1721 -1781 0
-1721 -1782 0
-1721 -1783 0
-1721 -1784 0
-1721 -1785 0
-1721 -1786 0
-1721 -1787 0
-1721 -1788 0
-1721 -1789 0
-1721 -1790 0
-1721 -1791 0
-1721 -1792 0
-1721 -1793 0
-1721 -1794 0
-1721 -1795 0
-1721 -1796 0
-1721 -1797 0
-1721 -1798 0
-1721 -1799 0
-1722 -1723 0
-1722 -1724 0
-1722 -1725 0
-1722 -1726 0
-1722 -1727 0
-1722 -1728 0
-1722 -1729 0
-1722 -1730 0
-1722 -1731 0
-1722 -1732 0
-1722 -1733 0
-1722 -1734 0
-1722 -1735 0
-1722 -1736 0
-1722 -1737 0
-1722 -1738 0
-1722 -1739 0
-1722 -1740 0
-1722 -1741 0
-1722 -1742 0
-1722 -1743 0
-1722 -1744 0
-1722 -1745 0
-1722 -1746 0
-1722 -1747 0
-1722 -1748 0
-1722 -1749 0
-1722 -1750 0
-1722 -1751 0
-1722 -1752 0
-1722 -1753 0
-1722 -1754 0
-1722 -1755 0
-1722 -1756 0
-1722 -1757 0
-1722 -1758 0
-1722 -1759 0
-1722 -1760 0
-1722 -1761 0
-1722 -1762 0
-1722 -1763 0
-1722 -1764 0
-1722 -1765 0
-1722 -1766 0
-1722 -1767 0
-1722 -1768 0
-1722 -1769 0
-1722 -1770 0
-1722 -1771 0
-1722 -1772 0
-1722 -1773 0
-1722 -1774 0
-1722 -1775 0
-1722 -1776 0
-1722 -1777 0
-1722 -1778 0
-1722 -1779 0
-1722 -1780 0
-1722 -1781 0
-1722 -1782 0
-1722 -1783 0
-1722 -1784 0
-1722 -1785 0
-1722 -1786 0
-1722 -1787 0
-1722 -1788 0
-1722 -1789 0
-1722 -1790 0
-1722 -1791 0
-1722 -1792 0
-1722 -1793 0
-1722 -1794 0
-1722 -1795 0
-1722 -1796 0
-1722 -1797 0
-1722 -1798 0
-1722 -1799 0
-1723 -1724 0
-1723 -1725 0
-1723 -1726 0
-1723 -1727 0
-1723 -1728 0
-1723 -1729 0
-1723 -1730 0
-1723 -1731 0
-1723 -1732 0
-1723 -1733 0
-1723 -1734 0
-1723 -1735 0
-1723 -1736 0
-1723 -1737 0
-1723 -1738 0
-1723 -1739 0
-1723 -1740 0
-1723 -1741 0
-1723 -1742 0
-1723 -1743 0
-1723 -1744 0
-1723 -1745 0
-1723 -1746 0
-1723 -1747 0
-1723 -1748 0
-1723 -1749 0
-1723 -1750 0
-1723 -1751 0
-1723 -1752 0
-1723 -1753 0
-1723 -1754 0
-1723 -1755 0
-1723 -1756 0
-1723 -1757 0
-1723 -1758 0
-1723 -1759 0
-1723 -1760 0
-1723 -1761 0
-1723 -1762 0
-1723 -1763 0
-1723 -1764 0
-1723 -1765 0
-1723 -1766 0
-1723 -1767 0
-1723 -1768 0
-1723 -1769 0
-1723 -1770 0
-1723 -1771 0
-1723 -1772 0
-1723 -1773 0
-1723 -1774 0
-1723 -1775 0
-1723 -1776 0
-1723 -1777 0
-1723 -1778 0
-1723 -1779 0
-1723 -1780 0
-1723 -1781 0
-1723 -1782 0
-1723 -1783 0
-1723 -1784 0
-1723 -1785 0
-1723 -1786 0
-1723 -1787 0
-1723 -1788 0
-1723 -1789 0
-1723 -1790 0
-1723 -1791 0
-1723 -1792 0
-1723 -1793 0
-1723 -1794 0
-1723 -1795 0
-1723 -1796 0
-1723 -1797 0
-1723 -1798 0
-1723 -1799 0
-1724 -1725 0
-1724 -1726 0
-1724 -1727 0
-1724 -1728 0
-1724 -1729 0
-1724 -1730 0
-1724 -1731 0
-1724 -1732 0
-1724 -1733 0
-1724 -1734 0
-1724 -1735 0
-1724 -1736 0
-1724 -1737 0
-1724 -1738 0
-1724 -1739 0
-1724 -1740 0
-1724 -1741 0
-1724 -1742 0
-1724 -1743 0
-1724 -1744 0
-1724 -1745 0
-1724 -1746 0
-1724 -1747 0
-1724 -1748 0
-1724 -1749 0
-1724 -1750 0
-1724 -1751 0
-1724 -1752 0
-1724 -1753 0
-1724 -1754 0
-1724 -1755 0
-1724 -1756 0
-1724 -1757 0
-1724 -1758 0
-1724 -1759 0
-1724 -1760 0
-1724 -1761 0
-1724 -1762 0
-1724 -1763 0
-1724 -1764 0
-1724 -1765 0
-1724 -1766 0
-1724 -1767 0
-1724 -1768 0
-1724 -1769 0
-1724 -1770 0
-1724 -1771 0
-1724 -1772 0
-1724 -1773 0
-1724 -1774 0
-1724 -1775 0
-1724 -1776 0
-1724 -1777 0
-1724 -1778 0
-1724 -1779 0
-1724 -1780 0
-1724 -1781 0
-1724 -1782 0
-1724 -1783 0
-1724 -1784 0
-1724 -1785 0
-1724 -1786 0
-1724 -1787 0
-1724 -1788 0
-1724 -1789 0
-1724 -1790 0
-1724 -1791 0
-1724 -1792 0
-1724 -1793 0
-1724 -1794 0
-1724 -1795 0
-1724 -1796 0
-1724 -1797 0
-1724 -1798 0
-1724 -1799 0
-1725 -1726 0
-1725 -1727 0
-1725 -1728 0
-1725 -1729 0
-1725 -1730 0
-1725 -1731 0
-1725 -1732 0
-1725 -1733 0
-1725 -1734 0
-1725 -1735 0
-1725 -1736 0
-1725 -1737 0
-1725 -1738 0
-1725 -1739 0
-1725 -1740 0
-1725 -1741 0
-1725 -1742 0
-1725 -1743 0
-1725 -1744 0
-1725 -1745 0
-1725 -1746 0
-1725 -1747 0
-1725 -1748 0
-1725 -1749 0
-1725 -1750 0
-1725 -1751 0
-1725 -1752 0
-1725 -1753 0
-1725 -1754 0
-1725 -1755 0
-1725 -1756 0
-1725 -1757 0
-1725 -1758 0
-1725 -1759 0
-1725 -1760 0
-1725 -1761 0
-1725 -1762 0
-1725 -1763 0
-1725 -1764 0
-1725 -1765 0
-1725 -1766 0
-1725 -1767 0
-1725 -1768 0
-1725 -1769 0
-1725 -1770 0
-1725 -1771 0
-1725 -1772 0
-1725 -1773 0
-1725 -1774 0
-1725 -1775 0
-1725 -1776 0
-1725 -1777 0
-1725 -1778 0
-1725 -1779 0
-1725 -1780 0
-1725 -1781 0
-1725 -1782 0
-1725 -1783 0
-1725 -1784 0
-1725 -1785 0
-1725 -1786 0
-1725 -1787 0
-1725 -1788 0
-1725 -1789 0
-1725 -1790 0
-1725 -1791 0
-1725 -1792 0
-1725 -1793 0
-1725 -1794 0
-1725 -1795 0
-1725 -1796 0
-1725 -1797 0
-1725 -1798 0
-1725 -1799 0
-1726 -1727 0
-1726 -1728 0
-1726 -1729 0
-1726 -1730 0
-1726 -1731 0
-1726 -1732 0
-1726 -1733 0
-1726 -1734 0
-1726 -1735 0
-1726 -1736 0
-1726 -1737 0
-1726 -1738 0
-1726 -1739 0
-1726 -1740 0
-1726 -1741 0
-1726 -1742 0
-1726 -1743 0
-1726 -1744 0
-1726 -1745 0
-1726 -1746 0
-1726 -1747 0
-1726 -1748 0
-1726 -1749 0
-1726 -1750 0
-1726 -1751 0
-1726 -1752 0
-1726 -1753 0
-1726 -1754 0
-1726 -1755 0
-1726 -1756 0
-1726 -1757 0
-1726 -1758 0
-1726 -1759 0
-1726 -1760 0
-1726 -1761 0
-1726 -1762 0
-1726 -1763 0
-1726 -1764 0
-1726 -1765 0
-1726 -1766 0
-1726 -1767 0
-1726 -1768 0
-1726 -1769 0
-1726 -1770 0
-1726 -1771 0
-1726 -1772 0
-1726 -1773 0
-1726 -1774 0
-1726 -1775 0
-1726 -1776 0
-1726 -1777 0
-1726 -1778 0
-1726 -1779 0
-1726 -1780 0
-1726 -1781 0
-1726 -1782 0
-1726 -1783 0
-1726 -1784 0
-1726 -1785 0
-1726 -1786 0
-1726 -1787 0
-1726 -1788 0
-1726 -1789 0
-1726 -1790 0
-1726 -1791 0
-1726 -1792 0
-1726 -1793 0
-1726 -1794 0
-1726 -1795 0
-1726 -1796 0
-1726 -1797 0
-1726 -1798 0
-1726 -1799 0
-1727 -1728 0
-1727 -1729 0
-1727 -1730 0
-1727 -1731 0
-1727 -1732 0
-1727 -1733 0
-1727 -1734 0
-1727 -1735 0
-1727 -1736 0
-1727 -1737 0
-1727 -1738 0
-1727 -1739 0
-1727 -1740 0
-1727 -1741 0
-1727 -1742 0
-1727 -1743 0
-1727 -1744 0
-1727 -1745 0
-1727 -1746 0
-1727 -1747 0
-1727 -1748 0
-1727 -1749 0
-1727 -1750 0
-1727 -1751 0
-1727 -1752 0
-1727 -1753 0
-1727 -1754 0
-1727 -1755 0
-1727 -1756 0
-1727 -1757 0
-1727 -1758 0
-1727 -1759 0
-1727 -1760 0
-1727 -1761 0
-1727 -1762 0
-1727 -1763 0
-1727 -1764 0
-1727 -1765 0
-1727 -1766 0
-1727 -1767 0
-1727 -1768 0
-1727 -1769 0
-1727 -1770 0
-1727 -1771 0
-1727 -1772 0
-1727 -1773 0
-1727 -1774 0
-1727 -1775 0
-1727 -1776 0
-1727 -1777 0
-1727 -1778 0
-1727 -1779 0
-1727 -1780 0
-1727 -1781 0
-1727 -1782 0
-1727 -1783 0
-1727 -1784 0
-1727 -1785 0
-1727 -1786 0
-1727 -1787 0
-1727 -1788 0
-1727 -1789 0
-1727 -1790 0
-1727 -1791 0
-1727 -1792 0
-1727 -1793 0
-1727 -1794 0
-1727 -1795 0
-1727 -1796 0
-1727 -1797 0
-1727 -1798 0
-1727 -1799 0
-1728 -1729 0
-1728 -1730 0
-1728 -1731 0
-1728 -1732 0
-1728 -1733 0
-1728 -1734 0
-1728 -1735 0
-1728 -1736 0
-1728 -1737 0
-1728 -1738 0
-1728 -1739 0
-1728 -1740 0
-1728 -1741 0
-1728 -1742 0
-1728 -1743 0
-1728 -1744 0
-1728 -1745 0
-1728 -1746 0
-1728 -1747 0
-1728 -1748 0
-1728 -1749 0
-1728 -1750 0
-1728 -1751 0
-1728 -1752 0
-1728 -1753 0
-1728 -1754 0
-1728 -1755 0
-1728 -1756 0
-1728 -1757 0
-1728 -1758 0
-1728 -1759 0
-1728 -1760 0
-1728 -1761 0
-1728 -1762 0
-1728 -1763 0
-1728 -1764 0
-1728 -1765 0
-1728 -1766 0
-1728 -1767 0
-1728 -1768 0
-1728 -1769 0
-1728 -1770 0
-1728 -1771 0
-1728 -1772 0
-1728 -1773 0
-1728 -1774 0
-1728 -1775 0
-1728 -1776 0
-1728 -1777 0
-1728 -1778 0
-1728 -1779 0
-1728 -1780 0
-1728 -1781 0
-1728 -1782 0
-1728 -1783 0
-1728 -1784 0
-1728 -1785 0
-1728 -1786 0
-1728 -1787 0
-1728 -1788 0
-1728 -1789 0
-1728 -1790 0
-1728 -1791 0
-1728 -1792 0
-1728 -1793 0
-1728 -1794 0
-1728 -1795 0
-1728 -1796 0
-1728 -1797 0
-1728 -1798 0
-1728 -1799 0
-1729 -1730 0
-1729 -1731 0
-1729 -1732 0
-1729 -1733 0
-1729 -1734 0
-1729 -1735 0
-1729 -1736 0
-1729 -1737 0
-1729 -1738 0
-1729 -1739 0
-1729 -1740 0
-1729 -1741 0
-1729 -1742 0
-1729 -1743 0
-1729 -1744 0
-1729 -1745 0
-1729 -1746 0
-1729 -1747 0
-1729 -1748 0
-1729 -1749 0
-1729 -1750 0
-1729 -1751 0
-1729 -1752 0
-1729 -1753 0
-1729 -1754 0
-1729 -1755 0
-1729 -1756 0
-1729 -1757 0
-1729 -1758 0
-1729 -1759 0
-1729 -1760 0
-1729 -1761 0
-1729 -1762 0
-1729 -1763 0
-1729 -1764 0
-1729 -1765 0
-1729 -1766 0
-1729 -1767 0
-1729 -1768 0
-1729 -1769 0
-1729 -1770 0
-1729 -1771 0
-1729 -1772 0
-1729 -1773 0
-1729 -1774 0
-1729 -1775 0
-1729 -1776 0
-1729 -1777 0
-1729 -1778 0
-1729 -1779 0
-1729 -1780 0
-1729 -1781 0
-1729 -1782 0
-1729 -1783 0
-1729 -1784 0
-1729 -1785 0
-1729 -1786 0
-1729 -1787 0
-1729 -1788 0
-1729 -1789 0
-1729 -1790 0
-1729 -1791 0
-1729 -1792 0
-1729 -1793 0
-1729 -1794 0
-1729 -1795 0
-1729 -1796 0
-1729 -1797 0
-1729 -1798 0
-1729 -1799 0
-1730 -1731 0
-1730 -1732 0
-1730 -1733 0
-1730 -1734 0
-1730 -1735 0
-1730 -1736 0
-1730 -1737 0
-1730 -1738 0
-1730 -1739 0
-1730 -1740 0
-1730 -1741 0
-1730 -1742 0
-1730 -1743 0
-1730 -1744 0
-1730 -1745 0
-1730 -1746 0
-1730 -1747 0
-1730 -1748 0
-1730 -1749 0
-1730 -1750 0
-1730 -1751 0
-1730 -1752 0
-1730 -1753 0
-1730 -1754 0
-1730 -1755 0
-1730 -1756 0
-1730 -1757 0
-1730 -1758 0
-1730 -1759 0
-1730 -1760 0
-1730 -1761 0
-1730 -1762 0
-1730 -1763 0
-1730 -1764 0
-1730 -1765 0
-1730 -1766 0
-1730 -1767 0
-1730 -1768 0
-1730 -1769 0
-1730 -1770 0
-1730 -1771 0
-1730 -1772 0
-1730 -1773 0
-1730 -1774 0
-1730 -1775 0
-1730 -1776 0
-1730 -1777 0
-1730 -1778 0
-1730 -1779 0
-1730 -1780 0
-1730 -1781 0
-1730 -1782 0
-1730 -1783 0
-1730 -1784 0
-1730 -1785 0
-1730 -1786 0
-1730 -1787 0
-1730 -1788 0
-1730 -1789 0
-1730 -1790 0
-1730 -1791 0
-1730 -1792 0
-1730 -1793 0
-1730 -1794 0
-1730 -1795 0
-1730 -1796 0
-1730 -1797 0
-1730 -1798 0
-1730 -1799 0
-1731 -1732 0
-1731 -1733 0
-1731 -1734 0
-1731 -1735 0
-1731 -1736 0
-1731 -1737 0
-1731 -1738 0
-1731 -1739 0
-1731 -1740 0
-1731 -1741 0
-1731 -1742 0
-1731 -1743 0
-1731 -1744 0
-1731 -1745 0
-1731 -1746 0
-1731 -1747 0
-1731 -1748 0
-1731 -1749 0
-1731 -1750 0
-1731 -1751 0
-1731 -1752 0
-1731 -1753 0
-1731 -1754 0
-1731 -1755 0
-1731 -1756 0
-1731 -1757 0
-1731 -1758 0
-1731 -1759 0
-1731 -1760 0
-1731 -1761 0
-1731 -1762 0
-1731 -1763 0
-1731 -1764 0
-1731 -1765 0
-1731 -1766 0
-1731 -1767 0
-1731 -1768 0
-1731 -1769 0
-1731 -1770 0
-1731 -1771 0
-1731 -1772 0
-1731 -1773 0
-1731 -1774 0
-1731 -1775 0
-1731 -1776 0
-1731 -1777 0
-1731 -1778 0
-1731 -1779 0
-1731 -1780 0
-1731 -1781 0
-1731 -1782 0
-1731 -1783 0
-1731 -1784 0
-1731 -1785 0
-1731 -1786 0
-1731 -1787 0
-1731 -1788 0
-1731 -1789 0
-1731 -1790 0
-1731 -1791 0
-1731 -1792 0
-1731 -1793 0
-1731 -1794 0
-1731 -1795 0
-1731 -1796 0
-1731 -1797 0
-1731 -1798 0
-1731 -1799 0
-1732 -1733 0
-1732 -1734 0
-1732 -1735 0
-1732 -1736 0
-1732 -1737 0
-1732 -1738 0
-1732 -1739 0
-1732 -1740 0
-1732 -1741 0
-1732 -1742 0
-1732 -1743 0
-1732 -1744 0
-1732 -1745 0
-1732 -1746 0
-1732 -1747 0
-1732 -1748 0
-1732 -1749 0
-1732 -1750 0
-1732 -1751 0
-1732 -1752 0
-1732 -1753 0
-1732 -1754 0
-1732 -1755 0
-1732 -1756 0
-1732 -1757 0
-1732 -1758 0
-1732 -1759 0
-1732 -1760 0
-1732 -1761 0
-1732 -1762 0
-1732 -1763 0
-1732 -1764 0
-1732 -1765 0
-1732 -1766 0
-1732 -1767 0
-1732 -1768 0
-1732 -1769 0
-1732 -1770 0
-1732 -1771 0
-1732 -1772 0
-1732 -1773 0
-1732 -1774 0
-1732 -1775 0
-1732 -1776 0
-1732 -1777 0
-1732 -1778 0
-1732 -1779 0
-1732 -1780 0
-1732 -1781 0
-1732 -1782 0
-1732 -1783 0
-1732 -1784 0
-1732 -1785 0
-1732 -1786 0
-1732 -1787 0
-1732 -1788 0
-1732 -1789 0
-1732 -1790 0
-1732 -1791 0
-1732 -1792 0
-1732 -1793 0
-1732 -1794 0
-1732 -1795 0
-1732 -1796 0
-1732 -1797 0
-1732 -1798 0
-1732 -1799 0
-1733 -1734 0
-1733 -1735 0
-1733 -1736 0
-1733 -1737 0
-1733 -1738 0
-1733 -1739 0
-1733 -1740 0
-1733 -1741 0
-1733 -1742 0
-1733 -1743 0
-1733 -1744 0
-1733 -1745 0
-1733 -1746 0
-1733 -1747 0
-1733 -1748 0
-1733 -1749 0
-1733 -1750 0
-1733 -1751 0
-1733 -1752 0
-1733 -1753 0
-1733 -1754 0
-1733 -1755 0
-1733 -1756 0
-1733 -1757 0
-1733 -1758 0
-1733 -1759 0
-1733 -1760 0
-1733 -1761 0
-1733 -1762 0
-1733 -1763 0
-1733 -1764 0
-1733 -1765 0
-1733 -1766 0
-1733 -1767 0
-1733 -1768 0
-1733 -1769 0
-1733 -1770 0
-1733 -1771 0
-1733 -1772 0
-1733 -1773 0
-1733 -1774 0
-1733 -1775 0
-1733 -1776 0
-1733 -1777 0
-1733 -1778 0
-1733 -1779 0
-1733 -1780 0
-1733 -1781 0
-1733 -1782 0
-1733 -1783 0
-1733 -1784 0
-1733 -1785 0
-1733 -1786 0
-1733 -1787 0
-1733 -1788 0
-1733 -1789 0
-1733 -1790 0
-1733 -1791 0
-1733 -1792 0
-1733 -1793 0
-1733 -1794 0
-1733 -1795 0
-1733 -1796 0
-1733 -1797 0
-1733 -1798 0
-1733 -1799 0
-1734 -1735 0
-1734 -1736 0
-1734 -1737 0
-1734 -1738 0
-1734 -1739 0
-1734 -1740 0
-1734 -1741 0
-1734 -1742 0
-1734 -1743 0
-1734 -1744 0
-1734 -1745 0
-1734 -1746 0
-1734 -1747 0
-1734 -1748 0
-1734 -1749 0
-1734 -1750 0
-1734 -1751 0
-1734 -1752 0
-1734 -1753 0
-1734 -1754 0
-1734 -1755 0
-1734 -1756 0
-1734 -1757 0
-1734 -1758 0
-1734 -1759 0
-1734 -1760 0
-1734 -1761 0
-1734 -1762 0
-1734 -1763 0
-1734 -1764 0
-1734 -1765 0
-1734 -1766 0
-1734 -1767 0
-1734 -1768 0
-1734 -1769 0
-1734 -1770 0
-1734 -1771 0
-1734 -1772 0
-1734 -1773 0
-1734 -1774 0
-1734 -1775 0
-1734 -1776 0
-1734 -1777 0
-1734 -1778 0
-1734 -1779 0
-1734 -1780 0
-1734 -1781 0
-1734 -1782 0
-1734 -1783 0
-1734 -1784 0
-1734 -1785 0
-1734 -1786 0
-1734 -1787 0
-1734 -1788 0
-1734 -1789 0
-1734 -1790 0
-1734 -1791 0
-1734 -1792 0
-1734 -1793 0
-1734 -1794 0
-1734 -1795 0
-1734 -1796 0
-1734 -1797 0
-1734 -1798 0
-1734 -1799 0
-1735 -1736 0
-1735 -1737 0
-1735 -1738 0
-1735 -1739 0
-1735 -1740 0
-1735 -1741 0
-1735 -1742 0
-1735 -1743 0
-1735 -1744 0
-1735 -1745 0
-1735 -1746 0
-1735 -1747 0
-1735 -1748 0
-1735 -1749 0
-1735 -1750 0
-1735 -1751 0
-1735 -1752 0
-1735 -1753 0
-1735 -1754 0
-1735 -1755 0
-1735 -1756 0
-1735 -1757 0
-1735 -1758 0
-1735 -1759 0
-1735 -1760 0
-1735 -1761 0
-1735 -1762 0
-1735 -1763 0
-1735 -1764 0
-1735 -1765 0
-1735 -1766 0
-1735 -1767 0
-1735 -1768 0
-1735 -1769 0
-1735 -1770 0
-1735 -1771 0
-1735 -1772 0
-1735 -1773 0
-1735 -1774 0
-1735 -1775 0
-1735 -1776 0
-1735 -1777 0
-1735 -1778 0
-1735 -1779 0
-1735 -1780 0
-1735 -1781 0
-1735 -1782 0
-1735 -1783 0
-1735 -1784 0
-1735 -1785 0
-1735 -1786 0
-1735 -1787 0
-1735 -1788 0
-1735 -1789 0
-1735 -1790 0
-1735 -1791 0
-1735 -1792 0
-1735 -1793 0
-1735 -1794 0
-1735 -1795 0
-1735 -1796 0
-1735 -1797 0
-1735 -1798 0
-1735 -1799 0
-1736 -1737 0
-1736 -1738 0
-1736 -1739 0
-1736 -1740 0
-1736 -1741 0
-1736 -1742 0
-1736 -1743 0
-1736 -1744 0
-1736 -1745 0
-1736 -1746 0
-1736 -1747 0
-1736 -1748 0
-1736 -1749 0
-1736 -1750 0
-1736 -1751 0
-1736 -1752 0
-1736 -1753 0
-1736 -1754 0
-1736 -1755 0
-1736 -1756 0
-1736 -1757 0
-1736 -1758 0
-1736 -1759 0
-1736 -1760 0
-1736 -1761 0
-1736 -1762 0
-1736 -1763 0
-1736 -1764 0
-1736 -1765 0
-1736 -1766 0
-1736 -1767 0
-1736 -1768 0
-1736 -1769 0
-1736 -1770 0
-1736 -1771 0
-1736 -1772 0
-1736 -1773 0
-1736 -1774 0
-1736 -1775 0
-1736 -1776 0
-1736 -1777 0
-1736 -1778 0
-1736 -1779 0
-1736 -1780 0
-1736 -1781 0
-1736 -1782 0
-1736 -1783 0
-1736 -1784 0
-1736 -1785 0
-1736 -1786 0
-1736 -1787 0
-1736 -1788 0
-1736 -1789 0
-1736 -1790 0
-1736 -1791 0
-1736 -1792 0
-1736 -1793 0
-1736 -1794 0
-1736 -1795 0
-1736 -1796 0
-1736 -1797 0
-1736 -1798 0
-1736 -1799 0
-1737 -1738 0
-1737 -1739 0
-1737 -1740 0
-1737 -1741 0
-1737 -1742 0
-1737 -1743 0
-1737 -1744 0
-1737 -1745 0
-1737 -1746 0
-1737 -1747 0
-1737 -1748 0
-1737 -1749 0
-1737 -1750 0
-1737 -1751 0
-1737 -1752 0
-1737 -1753 0
-1737 -1754 0
-1737 -1755 0
-1737 -1756 0
-1737 -1757 0
-1737 -1758 0
-1737 -1759 0
-1737 -1760 0
-1737 -1761 0
-1737 -1762 0
-1737 -1763 0
-1737 -1764 0
-1737 -1765 0
-1737 -1766 0
-1737 -1767 0
-1737 -1768 0
-1737 -1769 0
-1737 -1770 0
-1737 -1771 0
-1737 -1772 0
-1737 -1773 0
-1737 -1774 0
-1737 -1775 0
-1737 -1776 0
-1737 -1777 0
-1737 -1778 0
-1737 -1779 0
-1737 -1780 0
-1737 -1781 0
-1737 -1782 0
-1737 -1783 0
-1737 -1784 0
-1737 -1785 0
-1737 -1786 0
-1737 -1787 0
-1737 -1788 0
-1737 -1789 0
-1737 -1790 0
-1737 -1791 0
-1737 -1792 0
-1737 -1793 0
-1737 -1794 0
-1737 -1795 0
-1737 -1796 0
-1737 -1797 0
-1737 -1798 0
-1737 -1799 0
-1738 -1739 0
-1738 -1740 0
-1738 -1741 0
-1738 -1742 0
-1738 -1743 0
-1738 -1744 0
-1738 -1745 0
-1738 -1746 0
-1738 -1747 0
-1738 -1748 0
-1738 -1749 0
-1738 -1750 0
-1738 -1751 0
-1738 -1752 0
-1738 -1753 0
-1738 -1754 0
-1738 -1755 0
-1738 -1756 0
-1738 -1757 0
-1738 -1758 0
-1738 -1759 0
-1738 -1760 0
-1738 -1761 0
-1738 -1762 0
-1738 -1763 0
-1738 -1764 0
-1738 -1765 0
-1738 -1766 0
-1738 -1767 0
-1738 -1768 0
-1738 -1769 0
-1738 -1770 0
-1738 -1771 0
-1738 -1772 0
-1738 -1773 0
-1738 -1774 0
-1738 -1775 0
-1738 -1776 0
-1738 -1777 0
-1738 -1778 0
-1738 -1779 0
-1738 -1780 0
-1738 -1781 0
-1738 -1782 0
-1738 -1783 0
-1738 -1784 0
-1738 -1785 0
-1738 -1786 0
-1738 -1787 0
-1738 -1788 0
-1738 -1789 0
-1738 -1790 0
-1738 -1791 0
-1738 -1792 0
-1738 -1793 0
-1738 -1794 0
-1738 -1795 0
-1738 -1796 0
-1738 -1797 0
-1738 -1798 0
-1738 -1799 0
-1739 -1740 0
-1739 -1741 0
-1739 -1742 0
-1739 -1743 0
-1739 -1744 0
-1739 -1745 0
-1739 -1746 0
-1739 -1747 0
-1739 -1748 0
-1739 -1749 0
-1739 -1750 0
-1739 -1751 0
-1739 -1752 0
-1739 -1753 0
-1739 -1754 0
-1739 -1755 0
-1739 -1756 0
-1739 -1757 0
-1739 -1758 0
-1739 -1759 0
-1739 -1760 0
-1739 -1761 0
-1739 -1762 0
-1739 -1763 0
-1739 -1764 0
-1739 -1765 0
-1739 -1766 0
-1739 -1767 0
-1739 -1768 0
-1739 -1769 0
-1739 -1770 0
-1739 -1771 0
-1739 -1772 0
-1739 -1773 0
-1739 -1774 0
-1739 -1775 0
-1739 -1776 0
-1739 -1777 0
-1739 -1778 0
-1739 -1779 0
-1739 -1780 0
-1739 -1781 0
-1739 -1782 0
-1739 -1783 0
-1739 -1784 0
-1739 -1785 0
-1739 -1786 0
-1739 -1787 0
-1739 -1788 0
-1739 -1789 0
-1739 -1790 0
-1739 -1791 0
-1739 -1792 0
-1739 -1793 0
-1739 -1794 0
-1739 -1795 0
-1739 -1796 0
-1739 -1797 0
-1739 -1798 0
-1739 -1799 0
-1740 -1741 0
-1740 -1742 0
-1740 -1743 0
-1740 -1744 0
-1740 -1745 0
-1740 -1746 0
-1740 -1747 0
-1740 -1748 0
-1740 -1749 0
-1740 -1750 0
-1740 -1751 0
-1740 -1752 0
-1740 -1753 0
-1740 -1754 0
-1740 -1755 0
-1740 -1756 0
-1740 -1757 0
-1740 -1758 0
-1740 -1759 0
-1740 -1760 0
-1740 -1761 0
-1740 -1762 0
-1740 -1763 0
-1740 -1764 0
-1740 -1765 0
-1740 -1766 0
-1740 -1767 0
-1740 -1768 0
-1740 -1769 0
-1740 -1770 0
-1740 -1771 0
-1740 -1772 0
-1740 -1773 0
-1740 -1774 0
-1740 -1775 0
-1740 -1776 0
-1740 -1777 0
-1740 -1778 0
-1740 -1779 0
-1740 -1780 0
-1740 -1781 0
-1740 -1782 0
-1740 -1783 0
-1740 -1784 0
-1740 -1785 0
-1740 -1786 0
-1740 -1787 0
-1740 -1788 0
-1740 -1789 0
-1740 -1790 0
-1740 -1791 0
-1740 -1792 0
-1740 -1793 0
-1740 -1794 0
-1740 -1795 0
-1740 -1796 0
-1740 -1797 0
-1740 -1798 0
-1740 -1799 0
-1741 -1742 0
-1741 -1743 0
-1741 -1744 0
-1741 -1745 0
-1741 -1746 0
-1741 -1747 0
-1741 -1748 0
-1741 -1749 0
-1741 -1750 0
-1741 -1751 0
-1741 -1752 0
-1741 -1753 0
-1741 -1754 0
-1741 -1755 0
-1741 -1756 0
-1741 -1757 0
-1741 -1758 0
-1741 -1759 0
-1741 -1760 0
-1741 -1761 0
-1741 -1762 0
-1741 -1763 0
-1741 -1764 0
-1741 -1765 0
-1741 -1766 0
-1741 -1767 0
-1741 -1768 0
-1741 -1769 0
-1741 -1770 0
-1741 -1771 0
-1741 -1772 0
-1741 -1773 0
-1741 -1774 0
-1741 -1775 0
-1741 -1776 0
-1741 -1777 0
-1741 -1778 0
-1741 -1779 0
-1741 -1780 0
-1741 -1781 0
-1741 -1782 0
-1741 -1783 0
-1741 -1784 0
-1741 -1785 0
-1741 -1786 0
-1741 -1787 0
-1741 -1788 0
-1741 -1789 0
-1741 -1790 0
-1741 -1791 0
-1741 -1792 0
-1741 -1793 0
-1741 -1794 0
-1741 -1795 0
-1741 -1796 0
-1741 -1797 0
-1741 -1798 0
-1741 -1799 0
-1742 -1743 0
-1742 -1744 0
-1742 -1745 0
-1742 -1746 0
-1742 -1747 0
-1742 -1748 0
-1742 -1749 0
-1742 -1750 0
-1742 -1751 0
-1742 -1752 0
-1742 -1753 0
-1742 -1754 0
-1742 -1755 0
-1742 -1756 0
-1742 -1757 0
-1742 -1758 0
-1742 -1759 0
-1742 -1760 0
-1742 -1761 0
-1742 -1762 0
-1742 -1763 0
-1742 -1764 0
-1742 -1765 0
-1742 -1766 0
-1742 -1767 0
-1742 -1768 0
-1742 -1769 0
-1742 -1770 0
-1742 -1771 0
-1742 -1772 0
-1742 -1773 0
-1742 -1774 0
-1742 -1775 0
-1742 -1776 0
-1742 -1777 0
-1742 -1778 0
-1742 -1779 0
-1742 -1780 0
-1742 -1781 0
-1742 -1782 0
-1742 -1783 0
-1742 -1784 0
-1742 -1785 0
-1742 -1786 0
-1742 -1787 0
-1742 -1788 0
-1742 -1789 0
-1742 -1790 0
-1742 -1791 0
-1742 -1792 0
-1742 -1793 0
-1742 -1794 0
-1742 -1795 0
-1742 -1796 0
-1742 -1797 0
-1742 -1798 0
-1742 -1799 0
-1743 -1744 0
-1743 -1745 0
-1743 -1746 0
-1743 -1747 0
-1743 -1748 0
-1743 -1749 0
-1743 -1750 0
-1743 -1751 0
-1743 -1752 0
-1743 -1753 0
-1743 -1754 0
-1743 -1755 0
-1743 -1756 0
-1743 -1757 0
-1743 -1758 0
-1743 -1759 0
-1743 -1760 0
-1743 -1761 0
-1743 -1762 0
-1743 -1763 0
-1743 -1764 0
-1743 -1765 0
-1743 -1766 0
-1743 -1767 0
-1743 -1768 0
-1743 -1769 0
-1743 -1770 0
-1743 -1771 0
-1743 -1772 0
-1743 -1773 0
-1743 -1774 0
-1743 -1775 0
-1743 -1776 0
-1743 -1777 0
-1743 -1778 0
-1743 -1779 0
-1743 -1780 0
-1743 -1781 0
-1743 -1782 0
-1743 -1783 0
-1743 -1784 0
-1743 -1785 0
-1743 -1786 0
-1743 -1787 0
-1743 -1788 0
-1743 -1789 0
-1743 -1790 0
-1743 -1791 0
-1743 -1792 0
-1743 -1793 0
-1743 -1794 0
-1743 -1795 0
-1743 -1796 0
-1743 -1797 0
-1743 -1798 0
-1743 -1799 0
-1744 -1745 0
-1744 -1746 0
-1744 -1747 0
-1744 -1748 0
-1744 -1749 0
-1744 -1750 0
-1744 -1751 0
-1744 -1752 0
-1744 -1753 0
-1744 -1754 0
-1744 -1755 0
-1744 -1756 0
-1744 -1757 0
-1744 -1758 0
-1744 -1759 0
-1744 -1760 0
-1744 -1761 0
-1744 -1762 0
-1744 -1763 0
-1744 -1764 0
-1744 -1765 0
-1744 -1766 0
-1744 -1767 0
-1744 -1768 0
-1744 -1769 0
-1744 -1770 0
-1744 -1771 0
-1744 -1772 0
-1744 -1773 0
-1744 -1774 0
-1744 -1775 0
-1744 -1776 0
-1744 -1777 0
-1744 -1778 0
-1744 -1779 0
-1744 -1780 0
-1744 -1781 0
-1744 -1782 0
-1744 -1783 0
-1744 -1784 0
-1744 -1785 0
-1744 -1786 0
-1744 -1787 0
-1744 -1788 0
-1744 -1789 0
-1744 -1790 0
-1744 -1791 0
-1744 -1792 0
-1744 -1793 0
-1744 -1794 0
-1744 -1795 0
-1744 -1796 0
-1744 -1797 0
-1744 -1798 0
-1744 -1799 0
-1745 -1746 0
-1745 -1747 0
-1745 -1748 0
-1745 -1749 0
-1745 -1750 0
-1745 -1751 0
-1745 -1752 0
-1745 -1753 0
-1745 -1754 0
-1745 -1755 0
-1745 -1756 0
-1745 -1757 0
-1745 -1758 0
-1745 -1759 0
-1745 -1760 0
-1745 -1761 0
-1745 -1762 0
-1745 -1763 0
-1745 -1764 0
-1745 -1765 0
-1745 -1766 0
-1745 -1767 0
-1745 -1768 0
-1745 -1769 0
-1745 -1770 0
-1745 -1771 0
-1745 -1772 0
-1745 -1773 0
-1745 -1774 0
-1745 -1775 0
-1745 -1776 0
-1745 -1777 0
-1745 -1778 0
-1745 -1779 0
-1745 -1780 0
-1745 -1781 0
-1745 -1782 0
-1745 -1783 0
-1745 -1784 0
-1745 -1785 0
-1745 -1786 0
-1745 -1787 0
-1745 -1788 0
-1745 -1789 0
-1745 -1790 0
-1745 -1791 0
-1745 -1792 0
-1745 -1793 0
-1745 -1794 0
-1745 -1795 0
-1745 -1796 0
-1745 -1797 0
-1745 -1798 0
-1745 -1799 0
-1746 -1747 0
-1746 -1748 0
-1746 -1749 0
-1746 -1750 0
-1746 -1751 0
-1746 -1752 0
-1746 -1753 0
-1746 -1754 0
-1746 -1755 0
-1746 -1756 0
-1746 -1757 0
-1746 -1758 0
-1746 -1759 0
-1746 -1760 0
-1746 -1761 0
-1746 -1762 0
-1746 -1763 0
-1746 -1764 0
-1746 -1765 0
-1746 -1766 0
-1746 -1767 0
-1746 -1768 0
-1746 -1769 0
-1746 -1770 0
-1746 -1771 0
-1746 -1772 0
-1746 -1773 0
-1746 -1774 0
-1746 -1775 0
-1746 -1776 0
-1746 -1777 0
-1746 -1778 0
-1746 -1779 0
-1746 -1780 0
-1746 -1781 0
-1746 -1782 0
-1746 -1783 0
-1746 -1784 0
-1746 -1785 0
-1746 -1786 0
-1746 -1787 0
-1746 -1788 0
-1746 -1789 0
-1746 -1790 0
-1746 -1791 0
-1746 -1792 0
-1746 -1793 0
-1746 -1794 0
-1746 -1795 0
-1746 -1796 0
-1746 -1797 0
-1746 -1798 0
-1746 -1799 0
-1747 -1748 0
-1747 -1749 0
-1747 -1750 0
-1747 -1751 0
-1747 -1752 0
-1747 -1753 0
-1747 -1754 0
-1747 -1755 0
-1747 -1756 0
-1747 -1757 0
-1747 -1758 0
-1747 -1759 0
-1747 -1760 0
-1747 -1761 0
-1747 -1762 0
-1747 -1763 0
-1747 -1764 0
-1747 -1765 0
-1747 -1766 0
-1747 -1767 0
-1747 -1768 0
-1747 -1769 0
-1747 -1770 0
-1747 -1771 0
-1747 -1772 0
-1747 -1773 0
-1747 -1774 0
-1747 -1775 0
-1747 -1776 0
-1747 -1777 0
-1747 -1778 0
-1747 -1779 0
-1747 -1780 0
-1747 -1781 0
-1747 -1782 0
-1747 -1783 0
-1747 -1784 0
-1747 -1785 0
-1747 -1786 0
-1747 -1787 0
-1747 -1788 0
-1747 -1789 0
-1747 -1790 0
-1747 -1791 0
-1747 -1792 0
-1747 -1793 0
-1747 -1794 0
-1747 -1795 0
-1747 -1796 0
-1747 -1797 0
-1747 -1798 0
-1747 -1799 0
-1748 -1749 0
-1748 -1750 0
-1748 -1751 0
-1748 -1752 0
-1748 -1753 0
-1748 -1754 0
-1748 -1755 0
-1748 -1756 0
-1748 -1757 0
-1748 -1758 0
-1748 -1759 0
-1748 -1760 0
-1748 -1761 0
-1748 -1762 0
-1748 -1763 0
-1748 -1764 0
-1748 -1765 0
-1748 -1766 0
-1748 -1767 0
-1748 -1768 0
-1748 -1769 0
-1748 -1770 0
-1748 -1771 0
-1748 -1772 0
-1748 -1773 0
-1748 -1774 0
-1748 -1775 0
-1748 -1776 0
-1748 -1777 0
-1748 -1778 0
-1748 -1779 0
-1748 -1780 0
-1748 -1781 0
-1748 -1782 0
-1748 -1783 0
-1748 -1784 0
-1748 -1785 0
-1748 -1786 0
-1748 -1787 0
-1748 -1788 0
-1748 -1789 0
-1748 -1790 0
-1748 -1791 0
-1748 -1792 0
-1748 -1793 0
-1748 -1794 0
-1748 -1795 0
-1748 -1796 0
-1748 -1797 0
-1748 -1798 0
-1748 -1799 0
-1749 -1750 0
-1749 -1751 0
-1749 -1752 0
-1749 -1753 0
-1749 -1754 0
-1749 -1755 0
-1749 -1756 0
-1749 -1757 0
-1749 -1758 0
-1749 -1759 0
-1749 -1760 0
-1749 -1761 0
-1749 -1762 0
-1749 -1763 0
-1749 -1764 0
-1749 -1765 0
-1749 -1766 0
-1749 -1767 0
-1749 -1768 0
-1749 -1769 0
-1749 -1770 0
-1749 -1771 0
-1749 -1772 0
-1749 -1773 0
-1749 -1774 0
-1749 -1775 0
-1749 -1776 0
-1749 -1777 0
-1749 -1778 0
-1749 -1779 0
-1749 -1780 0
-1749 -1781 0
-1749 -1782 0
-1749 -1783 0
-1749 -1784 0
-1749 -1785 0
-1749 -1786 0
-1749 -1787 0
-1749 -1788 0
-1749 -1789 0
-1749 -1790 0
-1749 -1791 0
-1749 -1792 0
-1749 -1793 0
-1749 -1794 0
-1749 -1795 0
-1749 -1796 0
-1749 -1797 0
-1749 -1798 0
-1749 -1799 0
-1750 -1751 0
-1750 -1752 0
-1750 -1753 0
-1750 -1754 0
-1750 -1755 0
-1750 -1756 0
-1750 -1757 0
-1750 -1758 0
-1750 -1759 0
-1750 -1760 0
-1750 -1761 0
-1750 -1762 0
-1750 -1763 0
-1750 -1764 0
-1750 -1765 0
-1750 -1766 0
-1750 -1767 0
-1750 -1768 0
-1750 -1769 0
-1750 -1770 0
-1750 -1771 0
-1750 -1772 0
-1750 -1773 0
-1750 -1774 0
-1750 -1775 0
-1750 -1776 0
-1750 -1777 0
-1750 -1778 0
-1750 -1779 0
-1750 -1780 0
-1750 -1781 0
-1750 -1782 0
-1750 -1783 0
-1750 -1784 0
-1750 -1785 0
-1750 -1786 0
-1750 -1787 0
-1750 -1788 0
-1750 -1789 0
-1750 -1790 0
-1750 -1791 0
-1750 -1792 0
-1750 -1793 0
-1750 -1794 0
-1750 -1795 0
-1750 -1796 0
-1750 -1797 0
-1750 -1798 0
-1750 -1799 0
-1751 -1752 0
-1751 -1753 0
-1751 -1754 0
-1751 -1755 0
-1751 -1756 0
-1751 -1757 0
-1751 -1758 0
-1751 -1759 0
-1751 -1760 0
-1751 -1761 0
-1751 -1762 0
-1751 -1763 0
-1751 -1764 0
-1751 -1765 0
-1751 -1766 0
-1751 -1767 0
-1751 -1768 0
-1751 -1769 0
-1751 -1770 0
-1751 -1771 0
-1751 -1772 0
-1751 -1773 0
-1751 -1774 0
-1751 -1775 0
-1751 -1776 0
-1751 -1777 0
-1751 -1778 0
-1751 -1779 0
-1751 -1780 0
-1751 -1781 0
-1751 -1782 0
-1751 -1783 0
-1751 -1784 0
-1751 -1785 0
-1751 -1786 0
-1751 -1787 0
-1751 -1788 0
-1751 -1789 0
-1751 -1790 0
-1751 -1791 0
-1751 -1792 0
-1751 -1793 0
-1751 -1794 0
-1751 -1795 0
-1751 -1796 0
-1751 -1797 0
-1751 -1798 0
-1751 -1799 0
-1752 -1753 0
-1752 -1754 0
-1752 -1755 0
-1752 -1756 0
-1752 -1757 0
-1752 -1758 0
-1752 -1759 0
-1752 -1760 0
-1752 -1761 0
-1752 -1762 0
-1752 -1763 0
-1752 -1764 0
-1752 -1765 0
-1752 -1766 0
-1752 -1767 0
-1752 -1768 0
-1752 -1769 0
-1752 -1770 0
-1752 -1771 0
-1752 -1772 0
-1752 -1773 0
-1752 -1774 0
-1752 -1775 0
-1752 -1776 0
-1752 -1777 0
-1752 -1778 0
-1752 -1779 0
-1752 -1780 0
-1752 -1781 0
-1752 -1782 0
-1752 -1783 0
-1752 -1784 0
-1752 -1785 0
-1752 -1786 0
-1752 -1787 0
-1752 -1788 0
-1752 -1789 0
-1752 -1790 0
-1752 -1791 0
-1752 -1792 0
-1752 -1793 0
-1752 -1794 0
-1752 -1795 0
-1752 -1796 0
-1752 -1797 0
-1752 -1798 0
-1752 -1799 0
-1753 -1754 0
-1753 -1755 0
-1753 -1756 0
-1753 -1757 0
-1753 -1758 0
-1753 -1759 0
-1753 -1760 0
-1753 -1761 0
-1753 -1762 0
-1753 -1763 0
-1753 -1764 0
-1753 -1765 0
-1753 -1766 0
-1753 -1767 0
-1753 -1768 0
-1753 -1769 0
-1753 -1770 0
-1753 -1771 0
-1753 -1772 0
-1753 -1773 0
-1753 -1774 0
-1753 -1775 0
-1753 -1776 0
-1753 -1777 0
-1753 -1778 0
-1753 -1779 0
-1753 -1780 0
-1753 -1781 0
-1753 -1782 0
-1753 -1783 0
-1753 -1784 0
-1753 -1785 0
-1753 -1786 0
-1753 -1787 0
-1753 -1788 0
-1753 -1789 0
-1753 -1790 0
-1753 -1791 0
-1753 -1792 0
-1753 -1793 0
-1753 -1794 0
-1753 -1795 0
-1753 -1796 0
-1753 -1797 0
-1753 -1798 0
-1753 -1799 0
-1754 -1755 0
-1754 -1756 0
-1754 -1757 0
-1754 -1758 0
-1754 -1759 0
-1754 -1760 0
-1754 -1761 0
-1754 -1762 0
-1754 -1763 0
-1754 -1764 0
-1754 -1765 0
-1754 -1766 0
-1754 -1767 0
-1754 -1768 0
-1754 -1769 0
-1754 -1770 0
-1754 -1771 0
-1754 -1772 0
-1754 -1773 0
-1754 -1774 0
-1754 -1775 0
-1754 -1776 0
-1754 -1777 0
-1754 -1778 0
-1754 -1779 0
-1754 -1780 0
-1754 -1781 0
-1754 -1782 0
-1754 -1783 0
-1754 -1784 0
-1754 -1785 0
-1754 -1786 0
-1754 -1787 0
-1754 -1788 0
-1754 -1789 0
-1754 -1790 0
-1754 -1791 0
-1754 -1792 0
-1754 -1793 0
-1754 -1794 0
-1754 -1795 0
-1754 -1796 0
-1754 -1797 0
-1754 -1798 0
-1754 -1799 0
-1755 -1756 0
-1755 -1757 0
-1755 -1758 0
-1755 -1759 0
-1755 -1760 0
-1755 -1761 0
-1755 -1762 0
-1755 -1763 0
-1755 -1764 0
-1755 -1765 0
-1755 -1766 0
-1755 -1767 0
-1755 -1768 0
-1755 -1769 0
-1755 -1770 0
-1755 -1771 0
-1755 -1772 0
-1755 -1773 0
-1755 -1774 0
-1755 -1775 0
-1755 -1776 0
-1755 -1777 0
-1755 -1778 0
-1755 -1779 0
-1755 -1780 0
-1755 -1781 0
-1755 -1782 0
-1755 -1783 0
-1755 -1784 0
-1755 -1785 0
-1755 -1786 0
-1755 -1787 0
-1755 -1788 0
-1755 -1789 0
-1755 -1790 0
-1755 -1791 0
-1755 -1792 0
-1755 -1793 0
-1755 -1794 0
-1755 -1795 0
-1755 -1796 0
-1755 -1797 0
-1755 -1798 0
-1755 -1799 0
-1756 -1757 0
-1756 -1758 0
-1756 -1759 0
-1756 -1760 0
-1756 -1761 0
-1756 -1762 0
-1756 -1763 0
-1756 -1764 0
-1756 -1765 0
-1756 -1766 0
-1756 -1767 0
-1756 -1768 0
-1756 -1769 0
-1756 -1770 0
-1756 -1771 0
-1756 -1772 0
-1756 -1773 0
-1756 -1774 0
-1756 -1775 0
-1756 -1776 0
-1756 -1777 0
-1756 -1778 0
-1756 -1779 0
-1756 -1780 0
-1756 -1781 0
-1756 -1782 0
-1756 -1783 0
-1756 -1784 0
-1756 -1785 0
-1756 -1786 0
-1756 -1787 0
-1756 -1788 0
-1756 -1789 0
-1756 -1790 0
-1756 -1791 0
-1756 -1792 0
-1756 -1793 0
-1756 -1794 0
-1756 -1795 0
-1756 -1796 0
-1756 -1797 0
-1756 -1798 0
-1756 -1799 0
-1757 -1758 0
-1757 -1759 0
-1757 -1760 0
-1757 -1761 0
-1757 -1762 0
-1757 -1763 0
-1757 -1764 0
-1757 -1765 0
-1757 -1766 0
-1757 -1767 0
-1757 -1768 0
-1757 -1769 0
-1757 -1770 0
-1757 -1771 0
-1757 -1772 0
-1757 -1773 0
-1757 -1774 0
-1757 -1775 0
-1757 -1776 0
-1757 -1777 0
-1757 -1778 0
-1757 -1779 0
-1757 -1780 0
-1757 -1781 0
-1757 -1782 0
-1757 -1783 0
-1757 -1784 0
-1757 -1785 0
-1757 -1786 0
-1757 -1787 0
-1757 -1788 0
-1757 -1789 0
-1757 -1790 0
-1757 -1791 0
-1757 -1792 0
-1757 -1793 0
-1757 -1794 0
-1757 -1795 0
-1757 -1796 0
-1757 -1797 0
-1757 -1798 0
-1757 -1799 0
-1758 -1759 0
-1758 -1760 0
-1758 -1761 0
-1758 -1762 0
-1758 -1763 0
-1758 -1764 0
-1758 -1765 0
-1758 -1766 0
-1758 -1767 0
-1758 -1768 0
-1758 -1769 0
-1758 -1770 0
-1758 -1771 0
-1758 -1772 0
-1758 -1773 0
-1758 -1774 0
-1758 -1775 0
-1758 -1776 0
-1758 -1777 0
-1758 -1778 0
-1758 -1779 0
-1758 -1780 0
-1758 -1781 0
-1758 -1782 0
-1758 -1783 0
-1758 -1784 0
-1758 -1785 0
-1758 -1786 0
-1758 -1787 0
-1758 -1788 0
-1758 -1789 0
-1758 -1790 0
-1758 -1791 0
-1758 -1792 0
-1758 -1793 0
-1758 -1794 0
-1758 -1795 0
-1758 -1796 0
-1758 -1797 0
-1758 -1798 0
-1758 -1799 0
-1759 -1760 0
-1759 -1761 0
-1759 -1762 0
-1759 -1763 0
-1759 -1764 0
-1759 -1765 0
-1759 -1766 0
-1759 -1767 0
-1759 -1768 0
-1759 -1769 0
-1759 -1770 0
-1759 -1771 0
-1759 -1772 0
-1759 -1773 0
-1759 -1774 0
-1759 -1775 0
-1759 -1776 0
-1759 -1777 0
-1759 -1778 0
-1759 -1779 0
-1759 -1780 0
-1759 -1781 0
-1759 -1782 0
-1759 -1783 0
-1759 -1784 0
-1759 -1785 0
-1759 -1786 0
-1759 -1787 0
-1759 -1788 0
-1759 -1789 0
-1759 -1790 0
-1759 -1791 0
-1759 -1792 0
-1759 -1793 0
-1759 -1794 0
-1759 -1795 0
-1759 -1796 0
-1759 -1797 0
-1759 -1798 0
-1759 -1799 0
-1760 -1761 0
-1760 -1762 0
-1760 -1763 0
-1760 -1764 0
-1760 -1765 0
-1760 -1766 0
-1760 -1767 0
-1760 -1768 0
-1760 -1769 0
-1760 -1770 0
-1760 -1771 0
-1760 -1772 0
-1760 -1773 0
-1760 -1774 0
-1760 -1775 0
-1760 -1776 0
-1760 -1777 0
-1760 -1778 0
-1760 -1779 0
-1760 -1780 0
-1760 -1781 0
-1760 -1782 0
-1760 -1783 0
-1760 -1784 0
-1760 -1785 0
-1760 -1786 0
-1760 -1787 0
-1760 -1788 0
-1760 -1789 0
-1760 -1790 0
-1760 -1791 0
-1760 -1792 0
-1760 -1793 0
-1760 -1794 0
-1760 -1795 0
-1760 -1796 0
-1760 -1797 0
-1760 -1798 0
-1760 -1799 0
-1761 -1762 0
-1761 -1763 0
-1761 -1764 0
-1761 -1765 0
-1761 -1766 0
-1761 -1767 0
-1761 -1768 0
-1761 -1769 0
-1761 -1770 0
-1761 -1771 0
-1761 -1772 0
-1761 -1773 0
-1761 -1774 0
-1761 -1775 0
-1761 -1776 0
-1761 -1777 0
-1761 -1778 0
-1761 -1779 0
-1761 -1780 0
-1761 -1781 0
-1761 -1782 0
-1761 -1783 0
-1761 -1784 0
-1761 -1785 0
-1761 -1786 0
-1761 -1787 0
-1761 -1788 0
-1761 -1789 0
-1761 -1790 0
-1761 -1791 0
-1761 -1792 0
-1761 -1793 0
-1761 -1794 0
-1761 -1795 0
-1761 -1796 0
-1761 -1797 0
-1761 -1798 0
-1761 -1799 0
-1762 -1763 0
-1762 -1764 0
-1762 -1765 0
-1762 -1766 0
-1762 -1767 0
-1762 -1768 0
-1762 -1769 0
-1762 -1770 0
-1762 -1771 0
-1762 -1772 0
-1762 -1773 0
-1762 -1774 0
-1762 -1775 0
-1762 -1776 0
-1762 -1777 0
-1762 -1778 0
-1762 -1779 0
-1762 -1780 0
-1762 -1781 0
-1762 -1782 0
-1762 -1783 0
-1762 -1784 0
-1762 -1785 0
-1762 -1786 0
-1762 -1787 0
-1762 -1788 0
-1762 -1789 0
-1762 -1790 0
-1762 -1791 0
-1762 -1792 0
-1762 -1793 0
-1762 -1794 0
-1762 -1795 0
-1762 -1796 0
-1762 -1797 0
-1762 -1798 0
-1762 -1799 0
-1763 -1764 0
-1763 -1765 0
-1763 -1766 0
-1763 -1767 0
-1763 -1768 0
-1763 -1769 0
-1763 -1770 0
-1763 -1771 0
-1763 -1772 0
-1763 -1773 0
-1763 -1774 0
-1763 -1775 0
-1763 -1776 0
-1763 -1777 0
-1763 -1778 0
-1763 -1779 0
-1763 -1780 0
-1763 -1781 0
-1763 -1782 0
-1763 -1783 0
-1763 -1784 0
-1763 -1785 0
-1763 -1786 0
-1763 -1787 0
-1763 -1788 0
-1763 -1789 0
-1763 -1790 0
-1763 -1791 0
-1763 -1792 0
-1763 -1793 0
-1763 -1794 0
-1763 -1795 0
-1763 -1796 0
-1763 -1797 0
-1763 -1798 0
-1763 -1799 0
-1764 -1765 0
-1764 -1766 0
-1764 -1767 0
-1764 -1768 0
-1764 -1769 0
-1764 -1770 0
-1764 -1771 0
-1764 -1772 0
-1764 -1773 0
-1764 -1774 0
-1764 -1775 0
-1764 -1776 0
-1764 -1777 0
-1764 -1778 0
-1764 -1779 0
-1764 -1780 0
-1764 -1781 0
-1764 -1782 0
-1764 -1783 0
-1764 -1784 0
-1764 -1785 0
-1764 -1786 0
-1764 -1787 0
-1764 -1788 0
-1764 -1789 0
-1764 -1790 0
-1764 -1791 0
-1764 -1792 0
-1764 -1793 0
-1764 -1794 0
-1764 -1795 0
-1764 -1796 0
-1764 -1797 0
-1764 -1798 0
-1764 -1799 0
-1765 -1766 0
-1765 -1767 0
-1765 -1768 0
-1765 -1769 0
-1765 -1770 0
-1765 -1771 0
-1765 -1772 0
-1765 -1773 0
-1765 -1774 0
-1765 -1775 0
-1765 -1776 0
-1765 -1777 0
-1765 -1778 0
-1765 -1779 0
-1765 -1780 0
-1765 -1781 0
-1765 -1782 0
-1765 -1783 0
-1765 -1784 0
-1765 -1785 0
-1765 -1786 0
-1765 -1787 0
-1765 -1788 0
-1765 -1789 0
-1765 -1790 0
-1765 -1791 0
-1765 -1792 0
-1765 -1793 0
-1765 -1794 0
-1765 -1795 0
-1765 -1796 0
-1765 -1797 0
-1765 -1798 0
-1765 -1799 0
-1766 -1767 0
-1766 -1768 0
-1766 -1769 0
-1766 -1770 0
-1766 -1771 0
-1766 -1772 0
-1766 -1773 0
-1766 -1774 0
-1766 -1775 0
-1766 -1776 0
-1766 -1777 0
-1766 -1778 0
-1766 -1779 0
-1766 -1780 0
-1766 -1781 0
-1766 -1782 0
-1766 -1783 0
-1766 -1784 0
-1766 -1785 0
-1766 -1786 0
-1766 -1787 0
-1766 -1788 0
-1766 -1789 0
-1766 -1790 0
-1766 -1791 0
-1766 -1792 0
-1766 -1793 0
-1766 -1794 0
-1766 -1795 0
-1766 -1796 0
-1766 -1797 0
-1766 -1798 0
-1766 -1799 0
-1767 -1768 0
-1767 -1769 0
-1767 -1770 0
-1767 -1771 0
-1767 -1772 0
-1767 -1773 0
-1767 -1774 0
-1767 -1775 0
-1767 -1776 0
-1767 -1777 0
-1767 -1778 0
-1767 -1779 0
-1767 -1780 0
-1767 -1781 0
-1767 -1782 0
-1767 -1783 0
-1767 -1784 0
-1767 -1785 0
-1767 -1786 0
-1767 -1787 0
-1767 -1788 0
-1767 -1789 0
-1767 -1790 0
-1767 -1791 0
-1767 -1792 0
-1767 -1793 0
-1767 -1794 0
-1767 -1795 0
-1767 -1796 0
-1767 -1797 0
-1767 -1798 0
-1767 -1799 0
-1768 -1769 0
-1768 -1770 0
-1768 -1771 0
-1768 -1772 0
-1768 -1773 0
-1768 -1774 0
-1768 -1775 0
-1768 -1776 0
-1768 -1777 0
-1768 -1778 0
-1768 -1779 0
-1768 -1780 0
-1768 -1781 0
-1768 -1782 0
-1768 -1783 0
-1768 -1784 0
-1768 -1785 0
-1768 -1786 0
-1768 -1787 0
-1768 -1788 0
-1768 -1789 0
-1768 -1790 0
-1768 -1791 0
-1768 -1792 0
-1768 -1793 0
-1768 -1794 0
-1768 -1795 0
-1768 -1796 0
-1768 -1797 0
-1768 -1798 0
-1768 -1799 0
-1769 -1770 0
-1769 -1771 0
-1769 -1772 0
-1769 -1773 0
-1769 -1774 0
-1769 -1775 0
-1769 -1776 0
-1769 -1777 0
-1769 -1778 0
-1769 -1779 0
-1769 -1780 0
-1769 -1781 0
-1769 -1782 0
-1769 -1783 0
-1769 -1784 0
-1769 -1785 0
-1769 -1786 0
-1769 -1787 0
-1769 -1788 0
-1769 -1789 0
-1769 -1790 0
-1769 -1791 0
-1769 -1792 0
-1769 -1793 0
-1769 -1794 0
-1769 -1795 0
-1769 -1796 0
-1769 -1797 0
-1769 -1798 0
-1769 -1799 0
-1770 -1771 0
-1770 -1772 0
-1770 -1773 0
-1770 -1774 0
-1770 -1775 0
-1770 -1776 0
-1770 -1777 0
-1770 -1778 0
-1770 -1779 0
-1770 -1780 0
-1770 -1781 0
-1770 -1782 0
-1770 -1783 0
-1770 -1784 0
-1770 -1785 0
-1770 -1786 0
-1770 -1787 0
-1770 -1788 0
-1770 -1789 0
-1770 -1790 0
-1770 -1791 0
-1770 -1792 0
-1770 -1793 0
-1770 -1794 0
-1770 -1795 0
-1770 -1796 0
-1770 -1797 0
-1770 -1798 0
-1770 -1799 0
-1771 -1772 0
-1771 -1773 0
-1771 -1774 0
-1771 -1775 0
-1771 -1776 0
-1771 -1777 0
-1771 -1778 0
-1771 -1779 0
-1771 -1780 0
-1771 -1781 0
-1771 -1782 0
-1771 -1783 0
-1771 -1784 0
-1771 -1785 0
-1771 -1786 0
-1771 -1787 0
-1771 -1788 0
-1771 -1789 0
-1771 -1790 0
-1771 -1791 0
-1771 -1792 0
-1771 -1793 0
-1771 -1794 0
-1771 -1795 0
-1771 -1796 0
-1771 -1797 0
-1771 -1798 0
-1771 -1799 0
-1772 -1773 0
-1772 -1774 0
-1772 -1775 0
-1772 -1776 0
-1772 -1777 0
-1772 -1778 0
-1772 -1779 0
-1772 -1780 0
-1772 -1781 0
-1772 -1782 0
-1772 -1783 0
-1772 -1784 0
-1772 -1785 0
-1772 -1786 0
-1772 -1787 0
-1772 -1788 0
-1772 -1789 0
-1772 -1790 0
-1772 -1791 0
-1772 -1792 0
-1772 -1793 0
-1772 -1794 0
-1772 -1795 0
-1772 -1796 0
-1772 -1797 0
-1772 -1798 0
-1772 -1799 0
-1773 -1774 0
-1773 -1775 0
-1773 -1776 0
-1773 -1777 0
-1773 -1778 0
-1773 -1779 0
-1773 -1780 0
-1773 -1781 0
-1773 -1782 0
-1773 -1783 0
-1773 -1784 0
-1773 -1785 0
-1773 -1786 0
-1773 -1787 0
-1773 -1788 0
-1773 -1789 0
-1773 -1790 0
-1773 -1791 0
-1773 -1792 0
-1773 -1793 0
-1773 -1794 0
-1773 -1795 0
-1773 -1796 0
-1773 -1797 0
-1773 -1798 0
-1773 -1799 0
-1774 -1775 0
-1774 -1776 0
-1774 -1777 0
-1774 -1778 0
-1774 -1779 0
-1774 -1780 0
-1774 -1781 0
-1774 -1782 0
-1774 -1783 0
-1774 -1784 0
-1774 -1785 0
-1774 -1786 0
-1774 -1787 0
-1774 -1788 0
-1774 -1789 0
-1774 -1790 0
-1774 -1791 0
-1774 -1792 0
-1774 -1793 0
-1774 -1794 0
-1774 -1795 0
-1774 -1796 0
-1774 -1797 0
-1774 -1798 0
-1774 -1799 0
-1775 -1776 0
-1775 -1777 0
-1775 -1778 0
-1775 -1779 0
-1775 -1780 0
-1775 -1781 0
-1775 -1782 0
-1775 -1783 0
-1775 -1784 0
-1775 -1785 0
-1775 -1786 0
-1775 -1787 0
-1775 -1788 0
-1775 -1789 0
-1775 -1790 0
-1775 -1791 0
-1775 -1792 0
-1775 -1793 0
-1775 -1794 0
-1775 -1795 0
-1775 -1796 0
-1775 -1797 0
-1775 -1798 0
-1775 -1799 0
-1776 -1777 0
-1776 -1778 0
-1776 -1779 0
-1776 -1780 0
-1776 -1781 0
-1776 -1782 0
-1776 -1783 0
-1776 -1784 0
-1776 -1785 0
-1776 -1786 0
-1776 -1787 0
-1776 -1788 0
-1776 -1789 0
-1776 -1790 0
-1776 -1791 0
-1776 -1792 0
-1776 -1793 0
-1776 -1794 0
-1776 -1795 0
-1776 -1796 0
-1776 -1797 0
-1776 -1798 0
-1776 -1799 0
-1777 -1778 0
-1777 -1779 0
-1777 -1780 0
-1777 -1781 0
-1777 -1782 0
-1777 -1783 0
-1777 -1784 0
-1777 -1785 0
-1777 -1786 0
-1777 -1787 0
-1777 -1788 0
-1777 -1789 0
-1777 -1790 0
-1777 -1791 0
-1777 -1792 0
-1777 -1793 0
-1777 -1794 0
-1777 -1795 0
-1777 -1796 0
-1777 -1797 0
-1777 -1798 0
-1777 -1799 0
-1778 -1779 0
-1778 -1780 0
-1778 -1781 0
-1778 -1782 0
-1778 -1783 0
-1778 -1784 0
-1778 -1785 0
-1778 -1786 0
-1778 -1787 0
-1778 -1788 0
-1778 -1789 0
-1778 -1790 0
-1778 -1791 0
-1778 -1792 0
-1778 -1793 0
-1778 -1794 0
-1778 -1795 0
-1778 -1796 0
-1778 -1797 0
-1778 -1798 0
-1778 -1799 0
-1779 -1780 0
-1779 -1781 0
-1779 -1782 0
-1779 -1783 0
-1779 -1784 0
-1779 -1785 0
-1779 -1786 0
-1779 -1787 0
-1779 -1788 0
-1779 -1789 0
-1779 -1790 0
-1779 -1791 0
-1779 -1792 0
-1779 -1793 0
-1779 -1794 0
-1779 -1795 0
-1779 -1796 0
-1779 -1797 0
-1779 -1798 0
-1779 -1799 0
-1780 -1781 0
-1780 -1782 0
-1780 -1783 0
-1780 -1784 0
-1780 -1785 0
-1780 -1786 0
-1780 -1787 0
-1780 -1788 0
-1780 -1789 0
-1780 -1790 0
-1780 -1791 0
-1780 -1792 0
-1780 -1793 0
-1780 -1794 0
-1780 -1795 0
-1780 -1796 0
-1780 -1797 0
-1780 -1798 0
-1780 -1799 0
-1781 -1782 0
-1781 -1783 0
-1781 -1784 0
-1781 -1785 0
-1781 -1786 0
-1781 -1787 0
-1781 -1788 0
-1781 -1789 0
-1781 -1790 0
-1781 -1791 0
-1781 -1792 0
-1781 -1793 0
-1781 -1794 0
-1781 -1795 0
-1781 -1796 0
-1781 -1797 0
-1781 -1798 0
-1781 -1799 0
-1782 -1783 0
-1782 -1784 0
-1782 -1785 0
-1782 -1786 0
-1782 -1787 0
-1782 -1788 0
-1782 -1789 0
-1782 -1790 0
-1782 -1791 0
-1782 -1792 0
-1782 -1793 0
-1782 -1794 0
-1782 -1795 0
-1782 -1796 0
-1782 -1797 0
-1782 -1798 0
-1782 -1799 0
-1783 -1784 0
-1783 -1785 0
-1783 -1786 0
-1783 -1787 0
-1783 -1788 0
-1783 -1789 0
-1783 -1790 0
-1783 -1791 0
-1783 -1792 0
-1783 -1793 0
-1783 -1794 0
-1783 -1795 0
-1783 -1796 0
-1783 -1797 0
-1783 -1798 0
-1783 -1799 0
-1784 -1785 0
-1784 -1786 0
-1784 -1787 0
-1784 -1788 0
-1784 -1789 0
-1784 -1790 0
-1784 -1791 0
-1784 -1792 0
-1784 -1793 0
-1784 -1794 0
-1784 -1795 0
-1784 -1796 0
-1784 -1797 0
-1784 -1798 0
-1784 -1799 0
-1785 -1786 0
-1785 -1787 0
-1785 -1788 0
-1785 -1789 0
-1785 -1790 0
-1785 -1791 0
-1785 -1792 0
-1785 -1793 0
-1785 -1794 0
-1785 -1795 0
-1785 -1796 0
-1785 -1797 0
-1785 -1798 0
-1785 -1799 0
-1786 -1787 0
-1786 -1788 0
-1786 -1789 0
-1786 -1790 0
-1786 -1791 0
-1786 -1792 0
-1786 -1793 0
-1786 -1794 0
-1786 -1795 0
-1786 -1796 0
-1786 -1797 0
-1786 -1798 0
-1786 -1799 0
-1787 -1788 0
-1787 -1789 0
-1787 -1790 0
-1787 -1791 0
-1787 -1792 0
-1787 -1793 0
-1787 -1794 0
-1787 -1795 0
-1787 -1796 0
-1787 -1797 0
-1787 -1798 0
-1787 -1799 0
-1788 -1789 0
-1788 -1790 0
-1788 -1791 0
-1788 -1792 0
-1788 -1793 0
-1788 -1794 0
-1788 -1795 0
-1788 -1796 0
-1788 -1797 0
-1788 -1798 0
-1788 -1799 0
-1789 -1790 0
-1789 -1791 0
-1789 -1792 0
-1789 -1793 0
-1789 -1794 0
-1789 -1795 0
-1789 -1796 0
-1789 -1797 0
-1789 -1798 0
-1789 -1799 0
-1790 -1791 0
-1790 -1792 0
-1790 -1793 0
-1790 -1794 0
-1790 -1795 0
-1790 -1796 0
-1790 -1797 0
-1790 -1798 0
-1790 -1799 0
-1791 -1792 0
-1791 -1793 0
-1791 -1794 0
-1791 -1795 0
-1791 -1796 0
-1791 -1797 0
-1791 -1798 0
-1791 -1799 0
-1792 -1793 0
-1792 -1794 0
-1792 -1795 0
-1792 -1796 0
-1792 -1797 0
-1792 -1798 0
-1792 -1799 0
-1793 -1794 0
-1793 -1795 0
-1793 -1796 0
-1793 -1797 0
-1793 -1798 0
-1793 -1799 0
-1794 -1795 0
-1794 -1796 0
-1794 -1797 0
-1794 -1798 0
-1794 -1799 0
-1795 -1796 0
-1795 -1797 0
-1795 -1798 0
-1795 -1799 0
-1796 -1797 0
-1796 -1798 0
-1796 -1799 0
-1797 -1798 0
-1797 -1799 0
-1798 -1799 0
-1716 963 0
-1716 1111 0
-1716 -933 0
-1716 -934 0
-1716 -935 0
-1716 -936 0
-1716 -937 0
-1716 -951 1133 0
-1716 -951 -1016 0
-1716 -951 -1040 0
-1716 -951 -1064 0
-1716 -951 -926 -948 0
-1716 -952 1134 0
-1716 -952 -1017 0
-1716 -952 -1041 0
-1716 -952 -1065 0
-1716 -952 -926 -949 0
-1716 -953 1135 0
-1716 -953 -1018 0
-1716 -953 -1042 0
-1716 -953 -1066 0
-1716 -953 -926 -950 0
-1716 -954 0
-1717 963 0
-1717 1112 0
-1717 -932 0
-1717 -934 0
-1717 -935 0
-1717 -936 0
-1717 -937 0
-1717 -951 1133 0
-1717 -951 -1020 0
-1717 -951 -1044 0
-1717 -951 -1068 0
-1717 -951 -927 -948 0
-1717 -952 1134 0
-1717 -952 -1021 0
-1717 -952 -1045 0
-1717 -952 -1069 0
-1717 -952 -927 -949 0
-1717 -953 1135 0
-1717 -953 -1022 0
-1717 -953 -1046 0
-1717 -953 -1070 0
-1717 -953 -927 -950 0
-1717 -954 0
-1718 963 0
-1718 1113 0
-1718 -932 0
-1718 -933 0
-1718 -935 0
-1718 -936 0
-1718 -937 0
-1718 -951 1133 0
-1718 -951 -1024 0
-1718 -951 -1048 0
-1718 -951 -1072 0
-1718 -951 -928 -948 0
-1718 -952 1134 0
-1718 -952 -1025 0
-1718 -952 -1049 0
-1718 -952 -1073 0
-1718 -952 -928 -949 0
-1718 -953 1135 0
-1718 -953 -1026 0
-1718 -953 -1050 0
-1718 -953 -1074 0
-1718 -953 -928 -950 0
-1718 -954 0
-1719 963 0
-1719 1114 0
-1719 -932 0
-1719 -933 0
-1719 -934 0
-1719 -936 0
-1719 -937 0
-1719 -951 1133 0
-1719 -951 -1028 0
-1719 -951 -1052 0
-1719 -951 -1076 0
-1719 -951 -929 -948 0
-1719 -952 1134 0
-1719 -952 -1029 0
-1719 -952 -1053 0
-1719 -952 -1077 0
-1719 -952 -929 -949 0
-1719 -953 1135 0
-1719 -953 -1030 0
-1719 -953 -1054 0
-1719 -953 -1078 0
-1719 -953 -929 -950 0
-1719 -954 0
-1720 963 0
-1720 1115 0
-1720 -932 0
-1720 -933 0
-1720 -934 0
-1720 -935 0
-1720 -937 0
-1720 -951 1133 0
-1720 -951 -1032 0
-1720 -951 -1056 0
-1720 -951 -1080 0
-1720 -951 -930 -948 0
-1720 -952 1134 0
-1720 -952 -1033 0
-1720 -952 -1057 0
-1720 -952 -1081 0
-1720 -952 -930 -949 0
-1720 -953 1135 0
-1720 -953 -1034 0
-1720 -953 -1058 0
-1720 -953 -1082 0
-1720 -953 -930 -950 0
-1720 -954 0
-1721 963 0
-1721 1116 0
-1721 -932 0
-1721 -933 0
-1721 -934 0
-1721 -935 0
-1721 -936 0
-1721 -951 1133 0
-1721 -951 -1036 0
-1721 -951 -1060 0
-1721 -951 -1084 0
-1721 -951 -931 -948 0
-1721 -952 1134 0
-1721 -952 -1037 0
-1721 -952 -1061 0
-1721 -952 -1085 0
-1721 -952 -931 -949 0
-1721 -953 1135 0
-1721 -953 -1038 0
-1721 -953 -1062 0
-1721 -953 -1086 0
-1721 -953 -931 -950 0
-1721 -954 0
-1722 963 0
-1722 1111 0
-1722 -939 0
-1722 -940 0
-1722 -941 0
-1722 -942 0
-1722 -955 1133 0
-1722 -955 -1016 0
-1722 -955 -1040 0
-1722 -955 -1064 0
-1722 -955 -926 -948 0
-1722 -956 1134 0
-1722 -956 -1017 0
-1722 -956 -1041 0
-1722 -956 -1065 0
-1722 -956 -926 -949 0
-1722 -957 1135 0
-1722 -957 -1018 0
-1722 -957 -1042 0
-1722 -957 -1066 0
-1722 -957 -926 -950 0
-1722 -958 0
-1723 963 0
-1723 1112 0
-1723 -940 0
-1723 -941 0
-1723 -942 0
-1723 -955 1133 0
-1723 -955 -1020 0
-1723 -955 -1044 0
-1723 -955 -1068 0
-1723 -955 -927 -948 0
-1723 -956 1134 0
-1723 -956 -1021 0
-1723 -956 -1045 0
-1723 -956 -1069 0
-1723 -956 -927 -949 0
-1723 -957 1135 0
-1723 -957 -1022 0
-1723 -957 -1046 0
-1723 -957 -1070 0
-1723 -957 -927 -950 0
-1723 -958 0
-1724 963 0
-1724 1113 0
-1724 -938 0
-1724 -941 0
-1724 -942 0
-1724 -955 1133 0
-1724 -955 -1024 0
-1724 -955 -1048 0
-1724 -955 -1072 0
-1724 -955 -928 -948 0
-1724 -956 1134 0
-1724 -956 -1025 0
-1724 -956 -1049 0
-1724 -956 -1073 0
-1724 -956 -928 -949 0
-1724 -957 1135 0
-1724 -957 -1026 0
-1724 -957 -1050 0
-1724 -957 -1074 0
-1724 -957 -928 -950 0
-1724 -958 0
-1725 963 0
-1725 1114 0
-1725 -938 0
-1725 -939 0
-1725 -942 0
-1725 -955 1133 0
-1725 -955 -1028 0
-1725 -955 -1052 0
-1725 -955 -1076 0
-1725 -955 -929 -948 0
-1725 -956 1134 0
-1725 -956 -1029 0
-1725 -956 -1053 0
-1725 -956 -1077 0
-1725 -956 -929 -949 0
-1725 -957 1135 0
-1725 -957 -1030 0
-1725 -957 -1054 0
-1725 -957 -1078 0
-1725 -957 -929 -950 0
-1725 -958 0
-1726 963 0
-1726 1115 0
-1726 -938 0
-1726 -939 0
-1726 -940 0
-1726 -955 1133 0
-1726 -955 -1032 0
-1726 -955 -1056 0
-1726 -955 -1080 0
-1726 -955 -930 -948 0
-1726 -956 1134 0
-1726 -956 -1033 0
-1726 -956 -1057 0
-1726 -956 -1081 0
-1726 -956 -930 -949 0
-1726 -957 1135 0
-1726 -957 -1034 0
-1726 -957 -1058 0
-1726 -957 -1082 0
-1726 -957 -930 -950 0
-1726 -958 0
-1727 963 0
-1727 1116 0
-1727 -938 0
-1727 -939 0
-1727 -940 0
-1727 -941 0
-1727 -955 1133 0
-1727 -955 -1036 0
-1727 -955 -1060 0
-1727 -955 -1084 0
-1727 -955 -931 -948 0
-1727 -956 1134 0
-1727 -956 -1037 0
-1727 -956 -1061 0
-1727 -956 -1085 0
-1727 -956 -931 -949 0
-1727 -957 1135 0
-1727 -957 -1038 0
-1727 -957 -1062 0
-1727 -957 -1086 0
-1727 -957 -931 -950 0
-1727 -958 0
-1728 963 0
-1728 1111 0
-1728 -944 0
-1728 -945 0
-1728 -946 0
-1728 -959 1133 0
-1728 -959 -1016 0
-1728 -959 -1040 0
-1728 -959 -1064 0
-1728 -959 -926 -948 0
-1728 -960 1134 0
-1728 -960 -1017 0
-1728 -960 -1041 0
-1728 -960 -1065 0
-1728 -960 -926 -949 0
-1728 -961 1135 0
-1728 -961 -1018 0
-1728 -961 -1042 0
-1728 -961 -1066 0
-1728 -961 -926 -950 0
-1728 -962 0
-1729 963 0
-1729 1112 0
-1729 -945 0
-1729 -946 0
-1729 -959 1133 0
-1729 -959 -1020 0
-1729 -959 -1044 0
-1729 -959 -1068 0
-1729 -959 -927 -948 0
-1729 -960 1134 0
-1729 -960 -1021 0
-1729 -960 -1045 0
-1729 -960 -1069 0
-1729 -960 -927 -949 0
-1729 -961 1135 0
-1729 -961 -1022 0
-1729 -961 -1046 0
-1729 -961 -1070 0
-1729 -961 -927 -950 0
-1729 -962 0
-1730 963 0
-1730 1113 0
-1730 -946 0
-1730 -959 1133 0
-1730 -959 -1024 0
-1730 -959 -1048 0
-1730 -959 -1072 0
-1730 -959 -928 -948 0
-1730 -960 1134 0
-1730 -960 -1025 0
-1730 -960 -1049 0
-1730 -960 -1073 0
-1730 -960 -928 -949 0
-1730 -961 1135 0
-1730 -961 -1026 0
-1730 -961 -1050 0
-1730 -961 -1074 0
-1730 -961 -928 -950 0
-1730 -962 0
-1731 963 0
-1731 1114 0
-1731 -943 0
-1731 -959 1133 0
-1731 -959 -1028 0
-1731 -959 -1052 0
-1731 -959 -1076 0
-1731 -959 -929 -948 0
-1731 -960 1134 0
-1731 -960 -1029 0
-1731 -960 -1053 0
-1731 -960 -1077 0
-1731 -960 -929 -949 0
-1731 -961 1135 0
-1731 -961 -1030 0
-1731 -961 -1054 0
-1731 -961 -1078 0
-1731 -961 -929 -950 0
-1731 -962 0
-1732 963 0
-1732 1115 0
-1732 -943 0
-1732 -944 0
-1732 -959 1133 0
-1732 -959 -1032 0
-1732 -959 -1056 0
-1732 -959 -1080 0
-1732 -959 -930 -948 0
-1732 -960 1134 0
-1732 -960 -1033 0
-1732 -960 -1057 0
-1732 -960 -1081 0
-1732 -960 -930 -949 0
-1732 -961 1135 0
-1732 -961 -1034 0
-1732 -961 -1058 0
-1732 -961 -1082 0
-1732 -961 -930 -950 0
-1732 -962 0
-1733 963 0
-1733 1116 0
-1733 -943 0
-1733 -944 0
-1733 -945 0
-1733 -959 1133 0
-1733 -959 -1036 0
-1733 -959 -1060 0
-1733 -959 -1084 0
-1733 -959 -931 -948 0
-1733 -960 1134 0
-1733 -960 -1037 0
-1733 -960 -1061 0
-1733 -960 -1085 0
-1733 -960 -931 -949 0
-1733 -961 1135 0
-1733 -961 -1038 0
-1733 -961 -1062 0
-1733 -961 -1086 0
-1733 -961 -931 -950 0
-1733 -962 0
-1734 963 0
-1734 1111 0
-1734 1132 0
-1734 -1015 0
-1734 -1039 0
-1734 -1063 0
-1734 -926 -947 0
-1735 963 0
-1735 1112 0
-1735 1132 0
-1735 -1019 0
-1735 -1043 0
-1735 -1067 0
-1735 -927 -947 0
-1736 963 0
-1736 1113 0
-1736 1132 0
-1736 -1023 0
-1736 -1047 0
-1736 -1071 0
-1736 -928 -947 0
-1737 963 0
-1737 1114 0
-1737 1132 0
-1737 -1027 0
-1737 -1051 0
-1737 -1075 0
-1737 -929 -947 0
-1738 963 0
-1738 1115 0
-1738 1132 0
-1738 -1031 0
-1738 -1055 0
-1738 -1079 0
-1738 -930 -947 0
-1739 963 0
-1739 1116 0
-1739 1132 0
-1739 -1035 0
-1739 -1059 0
-1739 -1083 0
-1739 -931 -947 0
-1740 964 0
-1740 1117 0
-1740 -927 0
-1740 -928 0
-1740 -929 0
-1740 -930 0
-1740 -931 0
-1740 -947 1137 0
-1740 -947 -992 0
-1740 -947 -1040 0
-1740 -947 -1064 0
-1740 -947 -932 -952 0
-1740 -948 1138 0
-1740 -948 -993 0
-1740 -948 -1041 0
-1740 -948 -1065 0
-1740 -948 -932 -953 0
-1740 -949 1139 0
-1740 -949 -994 0
-1740 -949 -1042 0
-1740 -949 -1066 0
-1740 -949 -932 -954 0
-1740 -950 0
-1741 964 0
-1741 1118 0
-1741 -926 0
-1741 -928 0
-1741 -929 0
-1741 -930 0
-1741 -931 0
-1741 -947 1137 0
-1741 -947 -996 0
-1741 -947 -1044 0
-1741 -947 -1068 0
-1741 -947 -933 -952 0
-1741 -948 1138 0
-1741 -948 -997 0
-1741 -948 -1045 0
-1741 -948 -1069 0
-1741 -948 -933 -953 0
-1741 -949 1139 0
-1741 -949 -998 0
-1741 -949 -1046 0
-1741 -949 -1070 0
-1741 -949 -933 -954 0
-1741 -950 0
-1742 964 0
-1742 1119 0
-1742 -926 0
-1742 -927 0
-1742 -929 0
-1742 -930 0
-1742 -931 0
-1742 -947 1137 0
-1742 -947 -1000 0
-1742 -947 -1048 0
-1742 -947 -1072 0
-1742 -947 -934 -952 0
-1742 -948 1138 0
-1742 -948 -1001 0
-1742 -948 -1049 0
-1742 -948 -1073 0
-1742 -948 -934 -953 0
-1742 -949 1139 0
-1742 -949 -1002 0
-1742 -949 -1050 0
-1742 -949 -1074 0
-1742 -949 -934 -954 0
-1742 -950 0
-1743 964 0
-1743 1120 0
-1743 -926 0
-1743 -927 0
-1743 -928 0
-1743 -930 0
-1743 -931 0
-1743 -947 1137 0
-1743 -947 -1004 0
-1743 -947 -1052 0
-1743 -947 -1076 0
-1743 -947 -935 -952 0
-1743 -948 1138 0
-1743 -948 -1005 0
-1743 -948 -1053 0
-1743 -948 -1077 0
-1743 -948 -935 -953 0
-1743 -949 1139 0
-1743 -949 -1006 0
-1743 -949 -1054 0
-1743 -949 -1078 0
-1743 -949 -935 -954 0
-1743 -950 0
-1744 964 0
-1744 1121 0
-1744 -926 0
-1744 -927 0
-1744 -928 0
-1744 -929 0
-1744 -931 0
-1744 -947 1137 0
-1744 -947 -1008 0
-1744 -947 -1056 0
-1744 -947 -1080 0
-1744 -947 -936 -952 0
-1744 -948 1138 0
-1744 -948 -1009 0
-1744 -948 -1057 0
-1744 -948 -1081 0
-1744 -948 -936 -953 0
-1744 -949 1139 0
-1744 -949 -1010 0
-1744 -949 -1058 0
-1744 -949 -1082 0
-1744 -949 -936 -954 0
-1744 -950 0
-1745 964 0
-1745 1122 0
-1745 -926 0
-1745 -927 0
-1745 -928 0
-1745 -929 0
-1745 -930 0
-1745 -947 1137 0
-1745 -947 -1012 0
-1745 -947 -1060 0
-1745 -947 -1084 0
-1745 -947 -937 -952 0
-1745 -948 1138 0
-1745 -948 -1013 0
-1745 -948 -1061 0
-1745 -948 -1085 0
-1745 -948 -937 -953 0
-1745 -949 1139 0
-1745 -949 -1014 0
-1745 -949 -1062 0
-1745 -949 -1086 0
-1745 -949 -937 -954 0
-1745 -950 0
-1746 964 0
-1746 1117 0
-1746 -939 0
-1746 -940 0
-1746 -941 0
-1746 -942 0
-1746 -955 1137 0
-1746 -955 -992 0
-1746 -955 -1040 0
-1746 -955 -1064 0
-1746 -955 -932 -952 0
-1746 -956 1138 0
-1746 -956 -993 0
-1746 -956 -1041 0
-1746 -956 -1065 0
-1746 -956 -932 -953 0
-1746 -957 1139 0
-1746 -957 -994 0
-1746 -957 -1042 0
-1746 -957 -1066 0
-1746 -957 -932 -954 0
-1746 -958 0
-1747 964 0
-1747 1118 0
-1747 -940 0
-1747 -941 0
-1747 -942 0
-1747 -955 1137 0
-1747 -955 -996 0
-1747 -955 -1044 0
-1747 -955 -1068 0
-1747 -955 -933 -952 0
-1747 -956 1138 0
-1747 -956 -997 0
-1747 -956 -1045 0
-1747 -956 -1069 0
-1747 -956 -933 -953 0
-1747 -957 1139 0
-1747 -957 -998 0
-1747 -957 -1046 0
-1747 -957 -1070 0
-1747 -957 -933 -954 0
-1747 -958 0
-1748 964 0
-1748 1119 0
-1748 -938 0
-1748 -941 0
-1748 -942 0
-1748 -955 1137 0
-1748 -955 -1000 0
-1748 -955 -1048 0
-1748 -955 -1072 0
-1748 -955 -934 -952 0
-1748 -956 1138 0
-1748 -956 -1001 0
-1748 -956 -1049 0
-1748 -956 -1073 0
-1748 -956 -934 -953 0
-1748 -957 1139 0
-1748 -957 -1002 0
-1748 -957 -1050 0
-1748 -957 -1074 0
-1748 -957 -934 -954 0
-1748 -958 0
-1749 964 0
-1749 1120 0
-1749 -938 0
-1749 -939 0
-1749 -942 0
-1749 -955 1137 0
-1749 -955 -1004 0
-1749 -955 -1052 0
-1749 -955 -1076 0
-1749 -955 -935 -952 0
-1749 -956 1138 0
-1749 -956 -1005 0
-1749 -956 -1053 0
-1749 -956 -1077 0
-1749 -956 -935 -953 0
-1749 -957 1139 0
-1749 -957 -1006 0
-1749 -957 -1054 0
-1749 -957 -1078 0
-1749 -957 -935 -954 0
-1749 -958 0
-1750 964 0
-1750 1121 0
-1750 -938 0
-1750 -939 0
-1750 -940 0
-1750 -955 1137 0
-1750 -955 -1008 0
-1750 -955 -1056 0
-1750 -955 -1080 0
-1750 -955 -936 -952 0
-1750 -956 1138 0
-1750 -956 -1009 0
-1750 -956 -1057 0
-1750 -956 -1081 0
-1750 -956 -936 -953 0
-1750 -957 1139 0
-1750 -957 -1010 0
-1750 -957 -1058 0
-1750 -957 -1082 0
-1750 -957 -936 -954 0
-1750 -958 0
-1751 964 0
-1751 1122 0
-1751 -938 0
-1751 -939 0
-1751 -940 0
-1751 -941 0
-1751 -955 1137 0
-1751 -955 -1012 0
-1751 -955 -1060 0
-1751 -955 -1084 0
-1751 -955 -937 -952 0
-1751 -956 1138 0
-1751 -956 -1013 0
-1751 -956 -1061 0
-1751 -956 -1085 0
-1751 -956 -937 -953 0
-1751 -957 1139 0
-1751 -957 -1014 0
-1751 -957 -1062 0
-1751 -957 -1086 0
-1751 -957 -937 -954 0
-1751 -958 0
-1752 964 0
-1752 1117 0
-1752 -944 0
-1752 -945 0
-1752 -946 0
-1752 -959 1137 0
-1752 -959 -992 0
-1752 -959 -1040 0
-1752 -959 -1064 0
-1752 -959 -932 -952 0
-1752 -960 1138 0
-1752 -960 -993 0
-1752 -960 -1041 0
-1752 -960 -1065 0
-1752 -960 -932 -953 0
-1752 -961 1139 0
-1752 -961 -994 0
-1752 -961 -1042 0
-1752 -961 -1066 0
-1752 -961 -932 -954 0
-1752 -962 0
-1753 964 0
-1753 1118 0
-1753 -945 0
-1753 -946 0
-1753 -959 1137 0
-1753 -959 -996 0
-1753 -959 -1044 0
-1753 -959 -1068 0
-1753 -959 -933 -952 0
-1753 -960 1138 0
-1753 -960 -997 0
-1753 -960 -1045 0
-1753 -960 -1069 0
-1753 -960 -933 -953 0
-1753 -961 1139 0
-1753 -961 -998 0
-1753 -961 -1046 0
-1753 -961 -1070 0
-1753 -961 -933 -954 0
-1753 -962 0
-1754 964 0
-1754 1119 0
-1754 -946 0
-1754 -959 1137 0
-1754 -959 -1000 0
-1754 -959 -1048 0
-1754 -959 -1072 0
-1754 -959 -934 -952 0
-1754 -960 1138 0
-1754 -960 -1001 0
-1754 -960 -1049 0
-1754 -960 -1073 0
-1754 -960 -934 -953 0
-1754 -961 1139 0
-1754 -961 -1002 0
-1754 -961 -1050 0
-1754 -961 -1074 0
-1754 -961 -934 -954 0
-1754 -962 0
-1755 964 0
-1755 1120 0
-1755 -943 0
-1755 -959 1137 0
-1755 -959 -1004 0
-1755 -959 -1052 0
-1755 -959 -1076 0
-1755 -959 -935 -952 0
-1755 -960 1138 0
-1755 -960 -1005 0
-1755 -960 -1053 0
-1755 -960 -1077 0
-1755 -960 -935 -953 0
-1755 -961 1139 0
-1755 -961 -1006 0
-1755 -961 -1054 0
-1755 -961 -1078 0
-1755 -961 -935 -954 0
-1755 -962 0
-1756 964 0
-1756 1121 0
-1756 -943 0
-1756 -944 0
-1756 -959 1137 0
-1756 -959 -1008 0
-1756 -959 -1056 0
-1756 -959 -1080 0
-1756 -959 -936 -952 0
-1756 -960 1138 0
-1756 -960 -1009 0
-1756 -960 -1057 0
-1756 -960 -1081 0
-1756 -960 -936 -953 0
-1756 -961 1139 0
-1756 -961 -1010 0
-1756 -961 -1058 0
-1756 -961 -1082 0
-1756 -961 -936 -954 0
-1756 -962 0
-1757 964 0
-1757 1122 0
-1757 -943 0
-1757 -944 0
-1757 -945 0
-1757 -959 1137 0
-1757 -959 -1012 0
-1757 -959 -1060 0
-1757 -959 -1084 0
-1757 -959 -937 -952 0
-1757 -960 1138 0
-1757 -960 -1013 0
-1757 -960 -1061 0
-1757 -960 -1085 0
-1757 -960 -937 -953 0
-1757 -961 1139 0
-1757 -961 -1014 0
-1757 -961 -1062 0
-1757 -961 -1086 0
-1757 -961 -937 -954 0
-1757 -962 0
-1758 964 0
-1758 1117 0
-1758 1136 0
-1758 -991 0
-1758 -1039 0
-1758 -1063 0
-1758 -932 -951 0
-1759 964 0
-1759 1118 0
-1759 1136 0
-1759 -995 0
-1759 -1043 0
-1759 -1067 0
-1759 -933 -951 0
-1760 964 0
-1760 1119 0
-1760 1136 0
-1760 -999 0
-1760 -1047 0
-1760 -1071 0
-1760 -934 -951 0
-1761 964 0
-1761 1120 0
-1761 1136 0
-1761 -1003 0
-1761 -1051 0
-1761 -1075 0
-1761 -935 -951 0
-1762 964 0
-1762 1121 0
-1762 1136 0
-1762 -1007 0
-1762 -1055 0
-1762 -1079 0
-1762 -936 -951 0
-1763 964 0
-1763 1122 0
-1763 1136 0
-1763 -1011 0
-1763 -1059 0
-1763 -1083 0
-1763 -937 -951 0
-1764 965 0
-1764 1123 0
-1764 -928 0
-1764 -929 0
-1764 -930 0
-1764 -931 0
-1764 -947 1141 0
-1764 -947 -992 0
-1764 -947 -996 0
-1764 -947 -1016 0
-1764 -947 -1020 0
-1764 -947 -1064 0
-1764 -947 -1068 0
-1764 -947 -938 -956 0
-1764 -948 1142 0
-1764 -948 -993 0
-1764 -948 -997 0
-1764 -948 -1017 0
-1764 -948 -1021 0
-1764 -948 -1065 0
-1764 -948 -1069 0
-1764 -948 -938 -957 0
-1764 -949 1143 0
-1764 -949 -994 0
-1764 -949 -998 0
-1764 -949 -1018 0
-1764 -949 -1022 0
-1764 -949 -1066 0
-1764 -949 -1070 0
-1764 -949 -938 -958 0
-1764 -950 0
-1765 965 0
-1765 1124 0
-1765 -926 0
-1765 -929 0
-1765 -930 0
-1765 -931 0
-1765 -947 1141 0
-1765 -947 -996 0
-1765 -947 -1000 0
-1765 -947 -1020 0
-1765 -947 -1024 0
-1765 -947 -1068 0
-1765 -947 -1072 0
-1765 -947 -939 -956 0
-1765 -948 1142 0
-1765 -948 -997 0
-1765 -948 -1001 0
-1765 -948 -1021 0
-1765 -948 -1025 0
-1765 -948 -1069 0
-1765 -948 -1073 0
-1765 -948 -939 -957 0
-1765 -949 1143 0
-1765 -949 -998 0
-1765 -949 -1002 0
-1765 -949 -1022 0
-1765 -949 -1026 0
-1765 -949 -1070 0
-1765 -949 -1074 0
-1765 -949 -939 -958 0
-1765 -950 0
-1766 965 0
-1766 1125 0
-1766 -926 0
-1766 -927 0
-1766 -930 0
-1766 -931 0
-1766 -947 1141 0
-1766 -947 -1000 0
-1766 -947 -1004 0
-1766 -947 -1024 0
-1766 -947 -1028 0
-1766 -947 -1072 0
-1766 -947 -1076 0
-1766 -947 -940 -956 0
-1766 -948 1142 0
-1766 -948 -1001 0
-1766 -948 -1005 0
-1766 -948 -1025 0
-1766 -948 -1029 0
-1766 -948 -1073 0
-1766 -948 -1077 0
-1766 -948 -940 -957 0
-1766 -949 1143 0
-1766 -949 -1002 0
-1766 -949 -1006 0
-1766 -949 -1026 0
-1766 -949 -1030 0
-1766 -949 -1074 0
-1766 -949 -1078 0
-1766 -949 -940 -958 0
-1766 -950 0
-1767 965 0
-1767 1126 0
-1767 -926 0
-1767 -927 0
-1767 -928 0
-1767 -931 0
-1767 -947 1141 0
-1767 -947 -1004 0
-1767 -947 -1008 0
-1767 -947 -1028 0
-1767 -947 -1032 0
-1767 -947 -1076 0
-1767 -947 -1080 0
-1767 -947 -941 -956 0
-1767 -948 1142 0
-1767 -948 -1005 0
-1767 -948 -1009 0
-1767 -948 -1029 0
-1767 -948 -1033 0
-1767 -948 -1077 0
-1767 -948 -1081 0
-1767 -948 -941 -957 0
-1767 -949 1143 0
-1767 -949 -1006 0
-1767 -949 -1010 0
-1767 -949 -1030 0
-1767 -949 -1034 0
-1767 -949 -1078 0
-1767 -949 -1082 0
-1767 -949 -941 -958 0
-1767 -950 0
-1768 965 0
-1768 1127 0
-1768 -926 0
-1768 -927 0
-1768 -928 0
-1768 -929 0
-1768 -947 1141 0
-1768 -947 -1008 0
-1768 -947 -1012 0
-1768 -947 -1032 0
-1768 -947 -1036 0
-1768 -947 -1080 0
-1768 -947 -1084 0
-1768 -947 -942 -956 0
-1768 -948 1142 0
-1768 -948 -1009 0
-1768 -948 -1013 0
-1768 -948 -1033 0
-1768 -948 -1037 0
-1768 -948 -1081 0
-1768 -948 -1085 0
-1768 -948 -942 -957 0
-1768 -949 1143 0
-1768 -949 -1010 0
-1768 -949 -1014 0
-1768 -949 -1034 0
-1768 -949 -1038 0
-1768 -949 -1082 0
-1768 -949 -1086 0
-1768 -949 -942 -958 0
-1768 -950 0
-1769 965 0
-1769 1123 0
-1769 -934 0
-1769 -935 0
-1769 -936 0
-1769 -937 0
-1769 -951 1141 0
-1769 -951 -992 0
-1769 -951 -996 0
-1769 -951 -1016 0
-1769 -951 -1020 0
-1769 -951 -1064 0
-1769 -951 -1068 0
-1769 -951 -938 -956 0
-1769 -952 1142 0
-1769 -952 -993 0
-1769 -952 -997 0
-1769 -952 -1017 0
-1769 -952 -1021 0
-1769 -952 -1065 0
-1769 -952 -1069 0
-1769 -952 -938 -957 0
-1769 -953 1143 0
-1769 -953 -994 0
-1769 -953 -998 0
-1769 -953 -1018 0
-1769 -953 -1022 0
-1769 -953 -1066 0
-1769 -953 -1070 0
-1769 -953 -938 -958 0
-1769 -954 0
-1770 965 0
-1770 1124 0
-1770 -932 0
-1770 -935 0
-1770 -936 0
-1770 -937 0
-1770 -951 1141 0
-1770 -951 -996 0
-1770 -951 -1000 0
-1770 -951 -1020 0
-1770 -951 -1024 0
-1770 -951 -1068 0
-1770 -951 -1072 0
-1770 -951 -939 -956 0
-1770 -952 1142 0
-1770 -952 -997 0
-1770 -952 -1001 0
-1770 -952 -1021 0
-1770 -952 -1025 0
-1770 -952 -1069 0
-1770 -952 -1073 0
-1770 -952 -939 -957 0
-1770 -953 1143 0
-1770 -953 -998 0
-1770 -953 -1002 0
-1770 -953 -1022 0
-1770 -953 -1026 0
-1770 -953 -1070 0
-1770 -953 -1074 0
-1770 -953 -939 -958 0
-1770 -954 0
-1771 965 0
-1771 1125 0
-1771 -932 0
-1771 -933 0
-1771 -936 0
-1771 -937 0
-1771 -951 1141 0
-1771 -951 -1000 0
-1771 -951 -1004 0
-1771 -951 -1024 0
-1771 -951 -1028 0
-1771 -951 -1072 0
-1771 -951 -1076 0
-1771 -951 -940 -956 0
-1771 -952 1142 0
-1771 -952 -1001 0
-1771 -952 -1005 0
-1771 -952 -1025 0
-1771 -952 -1029 0
-1771 -952 -1073 0
-1771 -952 -1077 0
-1771 -952 -940 -957 0
-1771 -953 1143 0
-1771 -953 -1002 0
-1771 -953 -1006 0
-1771 -953 -1026 0
-1771 -953 -1030 0
-1771 -953 -1074 0
-1771 -953 -1078 0
-1771 -953 -940 -958 0
-1771 -954 0
-1772 965 0
-1772 1126 0
-1772 -932 0
-1772 -933 0
-1772 -934 0
-1772 -937 0
-1772 -951 1141 0
-1772 -951 -1004 0
-1772 -951 -1008 0
-1772 -951 -1028 0
-1772 -951 -1032 0
-1772 -951 -1076 0
-1772 -951 -1080 0
-1772 -951 -941 -956 0
-1772 -952 1142 0
-1772 -952 -1005 0
-1772 -952 -1009 0
-1772 -952 -1029 0
-1772 -952 -1033 0
-1772 -952 -1077 0
-1772 -952 -1081 0
-1772 -952 -941 -957 0
-1772 -953 1143 0
-1772 -953 -1006 0
-1772 -953 -1010 0
-1772 -953 -1030 0
-1772 -953 -1034 0
-1772 -953 -1078 0
-1772 -953 -1082 0
-1772 -953 -941 -958 0
-1772 -954 0
-1773 965 0
-1773 1127 0
-1773 -932 0
-1773 -933 0
-1773 -934 0
-1773 -935 0
-1773 -951 1141 0
-1773 -951 -1008 0
-1773 -951 -1012 0
-1773 -951 -1032 0
-1773 -951 -1036 0
-1773 -951 -1080 0
-1773 -951 -1084 0
-1773 -951 -942 -956 0
-1773 -952 1142 0
-1773 -952 -1009 0
-1773 -952 -1013 0
-1773 -952 -1033 0
-1773 -952 -1037 0
-1773 -952 -1081 0
-1773 -952 -1085 0
-1773 -952 -942 -957 0
-1773 -953 1143 0
-1773 -953 -1010 0
-1773 -953 -1014 0
-1773 -953 -1034 0
-1773 -953 -1038 0
-1773 -953 -1082 0
-1773 -953 -1086 0
-1773 -953 -942 -958 0
-1773 -954 0
-1774 965 0
-1774 1123 0
-1774 -945 0
-1774 -946 0
-1774 -959 1141 0
-1774 -959 -992 0
-1774 -959 -996 0
-1774 -959 -1016 0
-1774 -959 -1020 0
-1774 -959 -1064 0
-1774 -959 -1068 0
-1774 -959 -938 -956 0
-1774 -960 1142 0
-1774 -960 -993 0
-1774 -960 -997 0
-1774 -960 -1017 0
-1774 -960 -1021 0
-1774 -960 -1065 0
-1774 -960 -1069 0
-1774 -960 -938 -957 0
-1774 -961 1143 0
-1774 -961 -994 0
-1774 -961 -998 0
-1774 -961 -1018 0
-1774 -961 -1022 0
-1774 -961 -1066 0
-1774 -961 -1070 0
-1774 -961 -938 -958 0
-1774 -962 0
-1775 965 0
-1775 1124 0
-1775 -946 0
-1775 -959 1141 0
-1775 -959 -996 0
-1775 -959 -1000 0
-1775 -959 -1020 0
-1775 -959 -1024 0
-1775 -959 -1068 0
-1775 -959 -1072 0
-1775 -959 -939 -956 0
-1775 -960 1142 0
-1775 -960 -997 0
-1775 -960 -1001 0
-1775 -960 -1021 0
-1775 -960 -1025 0
-1775 -960 -1069 0
-1775 -960 -1073 0
-1775 -960 -939 -957 0
-1775 -961 1143 0
-1775 -961 -998 0
-1775 -961 -1002 0
-1775 -961 -1022 0
-1775 -961 -1026 0
-1775 -961 -1070 0
-1775 -961 -1074 0
-1775 -961 -939 -958 0
-1775 -962 0
-1776 965 0
-1776 1125 0
-1776 -959 1141 0
-1776 -959 -1000 0
-1776 -959 -1004 0
-1776 -959 -1024 0
-1776 -959 -1028 0
-1776 -959 -1072 0
-1776 -959 -1076 0
-1776 -959 -940 -956 0
-1776 -960 1142 0
-1776 -960 -1001 0
-1776 -960 -1005 0
-1776 -960 -1025 0
-1776 -960 -1029 0
-1776 -960 -1073 0
-1776 -960 -1077 0
-1776 -960 -940 -957 0
-1776 -961 1143 0
-1776 -961 -1002 0
-1776 -961 -1006 0
-1776 -961 -1026 0
-1776 -961 -1030 0
-1776 -961 -1074 0
-1776 -961 -1078 0
-1776 -961 -940 -958 0
-1776 -962 0
-1777 965 0
-1777 1126 0
-1777 -943 0
-1777 -959 1141 0
-1777 -959 -1004 0
-1777 -959 -1008 0
-1777 -959 -1028 0
-1777 -959 -1032 0
-1777 -959 -1076 0
-1777 -959 -1080 0
-1777 -959 -941 -956 0
-1777 -960 1142 0
-1777 -960 -1005 0
-1777 -960 -1009 0
-1777 -960 -1029 0
-1777 -960 -1033 0
-1777 -960 -1077 0
-1777 -960 -1081 0
-1777 -960 -941 -957 0
-1777 -961 1143 0
-1777 -961 -1006 0
-1777 -961 -1010 0
-1777 -961 -1030 0
-1777 -961 -1034 0
-1777 -961 -1078 0
-1777 -961 -1082 0
-1777 -961 -941 -958 0
-1777 -962 0
-1778 965 0
-1778 1127 0
-1778 -943 0
-1778 -944 0
-1778 -959 1141 0
-1778 -959 -1008 0
-1778 -959 -1012 0
-1778 -959 -1032 0
-1778 -959 -1036 0
-1778 -959 -1080 0
-1778 -959 -1084 0
-1778 -959 -942 -956 0
-1778 -960 1142 0
-1778 -960 -1009 0
-1778 -960 -1013 0
-1778 -960 -1033 0
-1778 -960 -1037 0
-1778 -960 -1081 0
-1778 -960 -1085 0
-1778 -960 -942 -957 0
-1778 -961 1143 0
-1778 -961 -1010 0
-1778 -961 -1014 0
-1778 -961 -1034 0
-1778 -961 -1038 0
-1778 -961 -1082 0
-1778 -961 -1086 0
-1778 -961 -942 -958 0
-1778 -962 0
-1779 965 0
-1779 1123 0
-1779 1140 0
-1779 -991 0
-1779 -995 0
-1779 -1015 0
-1779 -1019 0
-1779 -1063 0
-1779 -1067 0
-1779 -938 -955 0
-1780 965 0
-1780 1124 0
-1780 1140 0
-1780 -995 0
-1780 -999 0
-1780 -1019 0
-1780 -1023 0
-1780 -1067 0
-1780 -1071 0
-1780 -939 -955 0
-1781 965 0
-1781 1125 0
-1781 1140 0
-1781 -999 0
-1781 -1003 0
-1781 -1023 0
-1781 -1027 0
-1781 -1071 0
-1781 -1075 0
-1781 -940 -955 0
-1782 965 0
-1782 1126 0
-1782 1140 0
-1782 -1003 0
-1782 -1007 0
-1782 -1027 0
-1782 -1031 0
-1782 -1075 0
-1782 -1079 0
-1782 -941 -955 0
-1783 965 0
-1783 1127 0
-1783 1140 0
-1783 -1007 0
-1783 -1011 0
-1783 -1031 0
-1783 -1035 0
-1783 -1079 0
-1783 -1083 0
-1783 -942 -955 0
-1784 966 0
-1784 1128 0
-1784 -929 0
-1784 -930 0
-1784 -931 0
-1784 -947 1145 0
-1784 -947 -992 0
-1784 -947 -996 0
-1784 -947 -1000 0
-1784 -947 -1016 0
-1784 -947 -1020 0
-1784 -947 -1024 0
-1784 -947 -1040 0
-1784 -947 -1044 0
-1784 -947 -1048 0
-1784 -947 -943 -960 0
-1784 -948 1146 0
-1784 -948 -993 0
-1784 -948 -997 0
-1784 -948 -1001 0
-1784 -948 -1017 0
-1784 -948 -1021 0
-1784 -948 -1025 0
-1784 -948 -1041 0
-1784 -948 -1045 0
-1784 -948 -1049 0
-1784 -948 -943 -961 0
-1784 -949 1147 0
-1784 -949 -994 0
-1784 -949 -998 0
-1784 -949 -1002 0
-1784 -949 -1018 0
-1784 -949 -1022 0
-1784 -949 -1026 0
-1784 -949 -1042 0
-1784 -949 -1046 0
-1784 -949 -1050 0
-1784 -949 -943 -962 0
-1784 -950 0
-1785 966 0
-1785 1129 0
-1785 -926 0
-1785 -930 0
-1785 -931 0
-1785 -947 1145 0
-1785 -947 -996 0
-1785 -947 -1000 0
-1785 -947 -1004 0
-1785 -947 -1020 0
-1785 -947 -1024 0
-1785 -947 -1028 0
-1785 -947 -1044 0
-1785 -947 -1048 0
-1785 -947 -1052 0
-1785 -947 -944 -960 0
-1785 -948 1146 0
-1785 -948 -997 0
-1785 -948 -1001 0
-1785 -948 -1005 0
-1785 -948 -1021 0
-1785 -948 -1025 0
-1785 -948 -1029 0
-1785 -948 -1045 0
-1785 -948 -1049 0
-1785 -948 -1053 0
-1785 -948 -944 -961 0
-1785 -949 1147 0
-1785 -949 -998 0
-1785 -949 -1002 0
-1785 -949 -1006 0
-1785 -949 -1022 0
-1785 -949 -1026 0
-1785 -949 -1030 0
-1785 -949 -1046 0
-1785 -949 -1050 0
-1785 -949 -1054 0
-1785 -949 -944 -962 0
-1785 -950 0
-1786 966 0
-1786 1130 0
-1786 -926 0
-1786 -927 0
-1786 -931 0
-1786 -947 1145 0
-1786 -947 -1000 0
-1786 -947 -1004 0
-1786 -947 -1008 0
-1786 -947 -1024 0
-1786 -947 -1028 0
-1786 -947 -1032 0
-1786 -947 -1048 0
-1786 -947 -1052 0
-1786 -947 -1056 0
-1786 -947 -945 -960 0
-1786 -948 1146 0
-1786 -948 -1001 0
-1786 -948 -1005 0
-1786 -948 -1009 0
-1786 -948 -1025 0
-1786 -948 -1029 0
-1786 -948 -1033 0
-1786 -948 -1049 0
-1786 -948 -1053 0
-1786 -948 -1057 0
-1786 -948 -945 -961 0
-1786 -949 1147 0
-1786 -949 -1002 0
-1786 -949 -1006 0
-1786 -949 -1010 0
-1786 -949 -1026 0
-1786 -949 -1030 0
-1786 -949 -1034 0
-1786 -949 -1050 0
-1786 -949 -1054 0
-1786 -949 -1058 0
-1786 -949 -945 -962 0
-1786 -950 0
-1787 966 0
-1787 1131 0
-1787 -926 0
-1787 -927 0
-1787 -928 0
-1787 -947 1145 0
-1787 -947 -1004 0
-1787 -947 -1008 0
-1787 -947 -1012 0
-1787 -947 -1028 0
-1787 -947 -1032 0
-1787 -947 -1036 0
-1787 -947 -1052 0
-1787 -947 -1056 0
-1787 -947 -1060 0
-1787 -947 -946 -960 0
-1787 -948 1146 0
-1787 -948 -1005 0
-1787 -948 -1009 0
-1787 -948 -1013 0
-1787 -948 -1029 0
-1787 -948 -1033 0
-1787 -948 -1037 0
-1787 -948 -1053 0
-1787 -948 -1057 0
-1787 -948 -1061 0
-1787 -948 -946 -961 0
-1787 -949 1147 0
-1787 -949 -1006 0
-1787 -949 -1010 0
-1787 -949 -1014 0
-1787 -949 -1030 0
-1787 -949 -1034 0
-1787 -949 -1038 0
-1787 -949 -1054 0
-1787 -949 -1058 0
-1787 -949 -1062 0
-1787 -949 -946 -962 0
-1787 -950 0
-1788 966 0
-1788 1128 0
-1788 -935 0
-1788 -936 0
-1788 -937 0
-1788 -951 1145 0
-1788 -951 -992 0
-1788 -951 -996 0
-1788 -951 -1000 0
-1788 -951 -1016 0
-1788 -951 -1020 0
-1788 -951 -1024 0
-1788 -951 -1040 0
-1788 -951 -1044 0
-1788 -951 -1048 0
-1788 -951 -943 -960 0
-1788 -952 1146 0
-1788 -952 -993 0
-1788 -952 -997 0
-1788 -952 -1001 0
-1788 -952 -1017 0
-1788 -952 -1021 0
-1788 -952 -1025 0
-1788 -952 -1041 0
-1788 -952 -1045 0
-1788 -952 -1049 0
-1788 -952 -943 -961 0
-1788 -953 1147 0
-1788 -953 -994 0
-1788 -953 -998 0
-1788 -953 -1002 0
-1788 -953 -1018 0
-1788 -953 -1022 0
-1788 -953 -1026 0
-1788 -953 -1042 0
-1788 -953 -1046 0
-1788 -953 -1050 0
-1788 -953 -943 -962 0
-1788 -954 0
-1789 966 0
-1789 1129 0
-1789 -932 0
-1789 -936 0
-1789 -937 0
-1789 -951 1145 0
-1789 -951 -996 0
-1789 -951 -1000 0
-1789 -951 -1004 0
-1789 -951 -1020 0
-1789 -951 -1024 0
-1789 -951 -1028 0
-1789 -951 -1044 0
-1789 -951 -1048 0
-1789 -951 -1052 0
-1789 -951 -944 -960 0
-1789 -952 1146 0
-1789 -952 -997 0
-1789 -952 -1001 0
-1789 -952 -1005 0
-1789 -952 -1021 0
-1789 -952 -1025 0
-1789 -952 -1029 0
-1789 -952 -1045 0
-1789 -952 -1049 0
-1789 -952 -1053 0
-1789 -952 -944 -961 0
-1789 -953 1147 0
-1789 -953 -998 0
-1789 -953 -1002 0
-1789 -953 -1006 0
-1789 -953 -1022 0
-1789 -953 -1026 0
-1789 -953 -1030 0
-1789 -953 -1046 0
-1789 -953 -1050 0
-1789 -953 -1054 0
-1789 -953 -944 -962 0
-1789 -954 0
-1790 966 0
-1790 1130 0
-1790 -932 0
-1790 -933 0
-1790 -937 0
-1790 -951 1145 0
-1790 -951 -1000 0
-1790 -951 -1004 0
-1790 -951 -1008 0
-1790 -951 -1024 0
-1790 -951 -1028 0
-1790 -951 -1032 0
-1790 -951 -1048 0
-1790 -951 -1052 0
-1790 -951 -1056 0
-1790 -951 -945 -960 0
-1790 -952 1146 0
-1790 -952 -1001 0
-1790 -952 -1005 0
-1790 -952 -1009 0
-1790 -952 -1025 0
-1790 -952 -1029 0
-1790 -952 -1033 0
-1790 -952 -1049 0
-1790 -952 -1053 0
-1790 -952 -1057 0
-1790 -952 -945 -961 0
-1790 -953 1147 0
-1790 -953 -1002 0
-1790 -953 -1006 0
-1790 -953 -1010 0
-1790 -953 -1026 0
-1790 -953 -1030 0
-1790 -953 -1034 0
-1790 -953 -1050 0
-1790 -953 -1054 0
-1790 -953 -1058 0
-1790 -953 -945 -962 0
-1790 -954 0
-1791 966 0
-1791 1131 0
-1791 -932 0
-1791 -933 0
-1791 -934 0
-1791 -951 1145 0
-1791 -951 -1004 0
-1791 -951 -1008 0
-1791 -951 -1012 0
-1791 -951 -1028 0
-1791 -951 -1032 0
-1791 -951 -1036 0
-1791 -951 -1052 0
-1791 -951 -1056 0
-1791 -951 -1060 0
-1791 -951 -946 -960 0
-1791 -952 1146 0
-1791 -952 -1005 0
-1791 -952 -1009 0
-1791 -952 -1013 0
-1791 -952 -1029 0
-1791 -952 -1033 0
-1791 -952 -1037 0
-1791 -952 -1053 0
-1791 -952 -1057 0
-1791 -952 -1061 0
-1791 -952 -946 -961 0
-1791 -953 1147 0
-1791 -953 -1006 0
-1791 -953 -1010 0
-1791 -953 -1014 0
-1791 -953 -1030 0
-1791 -953 -1034 0
-1791 -953 -1038 0
-1791 -953 -1054 0
-1791 -953 -1058 0
-1791 -953 -1062 0
-1791 -953 -946 -962 0
-1791 -954 0
-1792 966 0
-1792 1128 0
-1792 -941 0
-1792 -942 0
-1792 -955 1145 0
-1792 -955 -992 0
-1792 -955 -996 0
-1792 -955 -1000 0
-1792 -955 -1016 0
-1792 -955 -1020 0
-1792 -955 -1024 0
-1792 -955 -1040 0
-1792 -955 -1044 0
-1792 -955 -1048 0
-1792 -955 -943 -960 0
-1792 -956 1146 0
-1792 -956 -993 0
-1792 -956 -997 0
-1792 -956 -1001 0
-1792 -956 -1017 0
-1792 -956 -1021 0
-1792 -956 -1025 0
-1792 -956 -1041 0
-1792 -956 -1045 0
-1792 -956 -1049 0
-1792 -956 -943 -961 0
-1792 -957 1147 0
-1792 -957 -994 0
-1792 -957 -998 0
-1792 -957 -1002 0
-1792 -957 -1018 0
-1792 -957 -1022 0
-1792 -957 -1026 0
-1792 -957 -1042 0
-1792 -957 -1046 0
-1792 -957 -1050 0
-1792 -957 -943 -962 0
-1792 -958 0
-1793 966 0
-1793 1129 0
-1793 -942 0
-1793 -955 1145 0
-1793 -955 -996 0
-1793 -955 -1000 0
-1793 -955 -1004 0
-1793 -955 -1020 0
-1793 -955 -1024 0
-1793 -955 -1028 0
-1793 -955 -1044 0
-1793 -955 -1048 0
-1793 -955 -1052 0
-1793 -955 -944 -960 0
-1793 -956 1146 0
-1793 -956 -997 0
-1793 -956 -1001 0
-1793 -956 -1005 0
-1793 -956 -1021 0
-1793 -956 -1025 0
-1793 -956 -1029 0
-1793 -956 -1045 0
-1793 -956 -1049 0
-1793 -956 -1053 0
-1793 -956 -944 -961 0
-1793 -957 1147 0
-1793 -957 -998 0
-1793 -957 -1002 0
-1793 -957 -1006 0
-1793 -957 -1022 0
-1793 -957 -1026 0
-1793 -957 -1030 0
-1793 -957 -1046 0
-1793 -957 -1050 0
-1793 -957 -1054 0
-1793 -957 -944 -962 0
-1793 -958 0
-1794 966 0
-1794 1130 0
-1794 -938 0
-1794 -955 1145 0
-1794 -955 -1000 0
-1794 -955 -1004 0
-1794 -955 -1008 0
-1794 -955 -1024 0
-1794 -955 -1028 0
-1794 -955 -1032 0
-1794 -955 -1048 0
-1794 -955 -1052 0
-1794 -955 -1056 0
-1794 -955 -945 -960 0
-1794 -956 1146 0
-1794 -956 -1001 0
-1794 -956 -1005 0
-1794 -956 -1009 0
-1794 -956 -1025 0
-1794 -956 -1029 0
-1794 -956 -1033 0
-1794 -956 -1049 0
-1794 -956 -1053 0
-1794 -956 -1057 0
-1794 -956 -945 -961 0
-1794 -957 1147 0
-1794 -957 -1002 0
-1794 -957 -1006 0
-1794 -957 -1010 0
-1794 -957 -1026 0
-1794 -957 -1030 0
-1794 -957 -1034 0
-1794 -957 -1050 0
-1794 -957 -1054 0
-1794 -957 -1058 0
-1794 -957 -945 -962 0
-1794 -958 0
-1795 966 0
-1795 1131 0
-1795 -938 0
-1795 -939 0
-1795 -955 1145 0
-1795 -955 -1004 0
-1795 -955 -1008 0
-1795 -955 -1012 0
-1795 -955 -1028 0
-1795 -955 -1032 0
-1795 -955 -1036 0
-1795 -955 -1052 0
-1795 -955 -1056 0
-1795 -955 -1060 0
-1795 -955 -946 -960 0
-1795 -956 1146 0
-1795 -956 -1005 0
-1795 -956 -1009 0
-1795 -956 -1013 0
-1795 -956 -1029 0
-1795 -956 -1033 0
-1795 -956 -1037 0
-1795 -956 -1053 0
-1795 -956 -1057 0
-1795 -956 -1061 0
-1795 -956 -946 -961 0
-1795 -957 1147 0
-1795 -957 -1006 0
-1795 -957 -1010 0
-1795 -957 -1014 0
-1795 -957 -1030 0
-1795 -957 -1034 0
-1795 -957 -1038 0
-1795 -957 -1054 0
-1795 -957 -1058 0
-1795 -957 -1062 0
-1795 -957 -946 -962 0
-1795 -958 0
-1796 966 0
-1796 1128 0
-1796 1144 0
-1796 -991 0
-1796 -995 0
-1796 -999 0
-1796 -1015 0
-1796 -1019 0
-1796 -1023 0
-1796 -1039 0
-1796 -1043 0
-1796 -1047 0
-1796 -943 -959 0
-1797 966 0
-1797 1129 0
-1797 1144 0
-1797 -995 0
-1797 -999 0
-1797 -1003 0
-1797 -1019 0
-1797 -1023 0
-1797 -1027 0
-1797 -1043 0
-1797 -1047 0
-1797 -1051 0
-1797 -944 -959 0
-1798 966 0
-1798 1130 0
-1798 1144 0
-1798 -999 0
-1798 -1003 0
-1798 -1007 0
-1798 -1023 0
-1798 -1027 0
-1798 -1031 0
-1798 -1047 0
-1798 -1051 0
-1798 -1055 0
-1798 -945 -959 0
-1799 966 0
-1799 1131 0
-1799 1144 0
-1799 -1003 0
-1799 -1007 0
-1799 -1011 0
-1799 -1027 0
-1799 -1031 0
-1799 -1035 0
-1799 -1051 0
-1799 -1055 0
-1799 -1059 0
-1799 -946 -959 0
-926 1111 1716 1717 1718 1719 1720 1721 1722 1723 1724 1725 1726 1727 1728 1729 1730 1731 1732 1733 1734 1735 1736 1737 1738 1739 0
-927 1112 1716 1717 1718 1719 1720 1721 1722 1723 1724 1725 1726 1727 1728 1729 1730 1731 1732 1733 1734 1735 1736 1737 1738 1739 0
-928 1113 1716 1717 1718 1719 1720 1721 1722 1723 1724 1725 1726 1727 1728 1729 1730 1731 1732 1733 1734 1735 1736 1737 1738 1739 0
-929 1114 1716 1717 1718 1719 1720 1721 1722 1723 1724 1725 1726 1727 1728 1729 1730 1731 1732 1733 1734 1735 1736 1737 1738 1739 0
-930 1115 1716 1717 1718 1719 1720 1721 1722 1723 1724 1725 1726 1727 1728 1729 1730 1731 1732 1733 1734 1735 1736 1737 1738 1739 0
-931 1116 1716 1717 1718 1719 1720 1721 1722 1723 1724 1725 1726 1727 1728 1729 1730 1731 1732 1733 1734 1735 1736 1737 1738 1739 0
-947 1132 1716 1717 1718 1719 1720 1721 1722 1723 1724 1725 1726 1727 1728 1729 1730 1731 1732 1733 1734 1735 1736 1737 1738 1739 0
-948 1133 1716 1717 1718 1719 1720 1721 1722 1723 1724 1725 1726 1727 1728 1729 1730 1731 1732 1733 1734 1735 1736 1737 1738 1739 0
-949 1134 1716 1717 1718 1719 1720 1721 1722 1723 1724 1725 1726 1727 1728 1729 1730 1731 1732 1733 1734 1735 1736 1737 1738 1739 0
-950 1135 1716 1717 1718 1719 1720 1721 1722 1723 1724 1725 1726 1727 1728 1729 1730 1731 1732 1733 1734 1735 1736 1737 1738 1739 0
-932 1117 1740 1741 1742 1743 1744 1745 1746 1747 1748 1749 1750 1751 1752 1753 1754 1755 1756 1757 1758 1759 1760 1761 1762 1763 0
-933 1118 1740 1741 1742 1743 1744 1745 1746 1747 1748 1749 1750 1751 1752 1753 1754 1755 1756 1757 1758 1759 1760 1761 1762 1763 0
-934 1119 1740 1741 1742 1743 1744 1745 1746 1747 1748 1749 1750 1751 1752 1753 1754 1755 1756 1757 1758 1759 1760 1761 1762 1763 0
-935 1120 1740 1741 1742 1743 1744 1745 1746 1747 1748 1749 1750 1751 1752 1753 1754 1755 1756 1757 1758 1759 1760 1761 1762 1763 0
-936 1121 1740 1741 1742 1743 1744 1745 1746 1747 1748 1749 1750 1751 1752 1753 1754 1755 1756 1757 1758 1759 1760 1761 1762 1763 0
-937 1122 1740 1741 1742 1743 1744 1745 1746 1747 1748 1749 1750 1751 1752 1753 1754 1755 1756 1757 1758 1759 1760 1761 1762 1763 0
-951 1136 1740 1741 1742 1743 1744 1745 1746 1747 1748 1749 1750 1751 1752 1753 1754 1755 1756 1757 1758 1759 1760 1761 1762 1763 0
-952 1137 1740 1741 1742 1743 1744 1745 1746 1747 1748 1749 1750 1751 1752 1753 1754 1755 1756 1757 1758 1759 1760 1761 1762 1763 0
-953 1138 1740 1741 1742 1743 1744 1745 1746 1747 1748 1749 1750 1751 1752 1753 1754 1755 1756 1757 1758 1759 1760 1761 1762 1763 0
-954 1139 1740 1741 1742 1743 1744 1745 1746 1747 1748 1749 1750 1751 1752 1753 1754 1755 1756 1757 1758 1759 1760 1761 1762 1763 0
-938 1123 1764 1765 1766 1767 1768 1769 1770 1771 1772 1773 1774 1775 1776 1777 1778 1779 1780 1781 1782 1783 0
-939 1124 1764 1765 1766 1767 1768 1769 1770 1771 1772 1773 1774 1775 1776 1777 1778 1779 1780 1781 1782 1783 0
-940 1125 1764 1765 1766 1767 1768 1769 1770 1771 1772 1773 1774 1775 1776 1777 1778 1779 1780 1781 1782 1783 0
-941 1126 1764 1765 1766 1767 1768 1769 1770 1771 1772 1773 1774 1775 1776 1777 1778 1779 1780 1781 1782 1783 0
-942 1127 1764 1765 1766 1767 1768 1769 1770 1771 1772 1773 1774 1775 1776 1777 1778 1779 1780 1781 1782 1783 0
-955 1140 1764 1765 1766 1767 1768 1769 1770 1771 1772 1773 1774 1775 1776 1777 1778 1779 1780 1781 1782 1783 0
-956 1141 1764 1765 1766 1767 1768 1769 1770 1771 1772 1773 1774 1775 1776 1777 1778 1779 1780 1781 1782 1783 0
-957 1142 1764 1765 1766 1767 1768 1769 1770 1771 1772 1773 1774 1775 1776 1777 1778 1779 1780 1781 1782 1783 0
-958 1143 1764 1765 1766 1767 1768 1769 1770 1771 1772 1773 1774 1775 1776 1777 1778 1779 1780 1781 1782 1783 0
-943 1128 1784 1785 1786 1787 1788 1789 1790 1791 1792 1793 1794 1795 1796 1797 1798 1799 0
-944 1129 1784 1785 1786 1787 1788 1789 1790 1791 1792 1793 1794 1795 1796 1797 1798 1799 0
-945 1130 1784 1785 1786 1787 1788 1789 1790 1791 1792 1793 1794 1795 1796 1797 1798 1799 0
-946 1131 1784 1785 1786 1787 1788 1789 1790 1791 1792 1793 1794 1795 1796 1797 1798 1799 0
-959 1144 1784 1785 1786 1787 1788 1789 1790 1791 1792 1793 1794 1795 1796 1797 1798 1799 0
-960 1145 1784 1785 1786 1787 1788 1789 1790 1791 1792 1793 1794 1795 1796 1797 1798 1799 0
-961 1146 1784 1785 1786 1787 1788 1789 1790 1791 1792 1793 1794 1795 1796 1797 1798 1799 0
-962 1147 1784 1785 1786 1787 1788 1789 1790 1791 1792 1793 1794 1795 1796 1797 1798 1799 0
