p cnf 1261 26397
13 0
30 0
4 0
22 0
12 0
26 0
21 0
35 0
753 0
770 0
760 0
774 0
752 0
766 0
741 0
763 0
1 2 3 4 5 6 0
-1 -2 0
-1 -3 0
-1 -4 0
-1 -5 0
-1 -6 0
-2 -3 0
-2 -4 0
-2 -5 0
-2 -6 0
-3 -4 0
-3 -5 0
-3 -6 0
-4 -5 0
-4 -6 0
-5 -6 0
22 23 24 25 0
-22 -23 0
-22 -24 0
-22 -25 0
-23 -24 0
-23 -25 0
-24 -25 0
7 8 9 10 11 12 0
-7 -8 0
-7 -9 0
-7 -10 0
-7 -11 0
-7 -12 0
-8 -9 0
-8 -10 0
-8 -11 0
-8 -12 0
-9 -10 0
-9 -11 0
-9 -12 0
-10 -11 0
-10 -12 0
-11 -12 0
26 27 28 29 0
-26 -27 0
-26 -28 0
-26 -29 0
-27 -28 0
-27 -29 0
-28 -29 0
13 14 15 16 17 0
-13 -14 0
-13 -15 0
-13 -16 0
-13 -17 0
-14 -15 0
-14 -16 0
-14 -17 0
-15 -16 0
-15 -17 0
-16 -17 0
30 31 32 33 0
-30 -31 0
-30 -32 0
-30 -33 0
-31 -32 0
-31 -33 0
-32 -33 0
18 19 20 21 0
-18 -19 0
-18 -20 0
-18 -21 0
-19 -20 0
-19 -21 0
-20 -21 0
34 35 36 37 0
-34 -35 0
-34 -36 0
-34 -37 0
-35 -36 0
-35 -37 0
-36 -37 0
-42 1 0
-1 42 0
-66 42 0
-66 22 0
-42 -22 66 0
-67 42 0
-67 23 0
-42 -23 67 0
-68 42 0
-68 24 0
-42 -24 68 0
-69 42 0
-69 25 0
-42 -25 69 0
-43 2 0
-2 43 0
-70 43 0
-70 22 0
-43 -22 70 0
-71 43 0
-71 23 0
-43 -23 71 0
-72 43 0
-72 24 0
-43 -24 72 0
-73 43 0
-73 25 0
-43 -25 73 0
-44 3 0
-3 44 0
-74 44 0
-74 22 0
-44 -22 74 0
-75 44 0
-75 23 0
-44 -23 75 0
-76 44 0
-76 24 0
-44 -24 76 0
-77 44 0
-77 25 0
-44 -25 77 0
-45 4 0
-4 45 0
-78 45 0
-78 22 0
-45 -22 78 0
-79 45 0
-79 23 0
-45 -23 79 0
-80 45 0
-80 24 0
-45 -24 80 0
-81 45 0
-81 25 0
-45 -25 81 0
-46 5 0
-5 46 0
-82 46 0
-82 22 0
-46 -22 82 0
-83 46 0
-83 23 0
-46 -23 83 0
-84 46 0
-84 24 0
-46 -24 84 0
-85 46 0
-85 25 0
-46 -25 85 0
-47 6 0
-6 47 0
-86 47 0
-86 22 0
-47 -22 86 0
-87 47 0
-87 23 0
-47 -23 87 0
-88 47 0
-88 24 0
-47 -24 88 0
-89 47 0
-89 25 0
-47 -25 89 0
-48 7 0
-7 48 0
-90 48 0
-90 26 0
-48 -26 90 0
-91 48 0
-91 27 0
-48 -27 91 0
-92 48 0
-92 28 0
-48 -28 92 0
-93 48 0
-93 29 0
-48 -29 93 0
-49 8 0
-8 49 0
-94 49 0
-94 26 0
-49 -26 94 0
-95 49 0
-95 27 0
-49 -27 95 0
-96 49 0
-96 28 0
-49 -28 96 0
-97 49 0
-97 29 0
-49 -29 97 0
-50 9 0
-9 50 0
-98 50 0
-98 26 0
-50 -26 98 0
-99 50 0
-99 27 0
-50 -27 99 0
-100 50 0
-100 28 0
-50 -28 100 0
-101 50 0
-101 29 0
-50 -29 101 0
-51 10 0
-10 51 0
-102 51 0
-102 26 0
-51 -26 102 0
-103 51 0
-103 27 0
-51 -27 103 0
-104 51 0
-104 28 0
-51 -28 104 0
-105 51 0
-105 29 0
-51 -29 105 0
-52 11 0
-11 52 0
-106 52 0
-106 26 0
-52 -26 106 0
-107 52 0
-107 27 0
-52 -27 107 0
-108 52 0
-108 28 0
-52 -28 108 0
-109 52 0
-109 29 0
-52 -29 109 0
-53 12 0
-12 53 0
-110 53 0
-110 26 0
-53 -26 110 0
-111 53 0
-111 27 0
-53 -27 111 0
-112 53 0
-112 28 0
-53 -28 112 0
-113 53 0
-113 29 0
-53 -29 113 0
-54 13 0
-13 54 0
-114 54 0
-114 30 0
-54 -30 114 0
-115 54 0
-115 31 0
-54 -31 115 0
-116 54 0
-116 32 0
-54 -32 116 0
-117 54 0
-117 33 0
-54 -33 117 0
-55 13 14 0
-13 55 0
-14 55 0
-118 55 0
-118 30 0
-55 -30 118 0
-119 55 0
-119 31 0
-55 -31 119 0
-120 55 0
-120 32 0
-55 -32 120 0
-121 55 0
-121 33 0
-55 -33 121 0
-56 14 15 0
-14 56 0
-15 56 0
-122 56 0
-122 30 0
-56 -30 122 0
-123 56 0
-123 31 0
-56 -31 123 0
-124 56 0
-124 32 0
-56 -32 124 0
-125 56 0
-125 33 0
-56 -33 125 0
-57 15 16 0
-15 57 0
-16 57 0
-126 57 0
-126 30 0
-57 -30 126 0
-127 57 0
-127 31 0
-57 -31 127 0
-128 57 0
-128 32 0
-57 -32 128 0
-129 57 0
-129 33 0
-57 -33 129 0
-58 16 17 0
-16 58 0
-17 58 0
-130 58 0
-130 30 0
-58 -30 130 0
-131 58 0
-131 31 0
-58 -31 131 0
-132 58 0
-132 32 0
-58 -32 132 0
-133 58 0
-133 33 0
-58 -33 133 0
-59 17 0
-17 59 0
-134 59 0
-134 30 0
-59 -30 134 0
-135 59 0
-135 31 0
-59 -31 135 0
-136 59 0
-136 32 0
-59 -32 136 0
-137 59 0
-137 33 0
-59 -33 137 0
-60 18 0
-18 60 0
-138 60 0
-138 34 0
-60 -34 138 0
-139 60 0
-139 35 0
-60 -35 139 0
-140 60 0
-140 36 0
-60 -36 140 0
-141 60 0
-141 37 0
-60 -37 141 0
-61 18 19 0
-18 61 0
-19 61 0
-142 61 0
-142 34 0
-61 -34 142 0
-143 61 0
-143 35 0
-61 -35 143 0
-144 61 0
-144 36 0
-61 -36 144 0
-145 61 0
-145 37 0
-61 -37 145 0
-62 18 19 20 0
-18 62 0
-19 62 0
-20 62 0
-146 62 0
-146 34 0
-62 -34 146 0
-147 62 0
-147 35 0
-62 -35 147 0
-148 62 0
-148 36 0
-62 -36 148 0
-149 62 0
-149 37 0
-62 -37 149 0
-63 19 20 21 0
-19 63 0
-20 63 0
-21 63 0
-150 63 0
-150 34 0
-63 -34 150 0
-151 63 0
-151 35 0
-63 -35 151 0
-152 63 0
-152 36 0
-63 -36 152 0
-153 63 0
-153 37 0
-63 -37 153 0
-64 20 21 0
-20 64 0
-21 64 0
-154 64 0
-154 34 0
-64 -34 154 0
-155 64 0
-155 35 0
-64 -35 155 0
-156 64 0
-156 36 0
-64 -36 156 0
-157 64 0
-157 37 0
-64 -37 157 0
-65 21 0
-21 65 0
-158 65 0
-158 34 0
-65 -34 158 0
-159 65 0
-159 35 0
-65 -35 159 0
-160 65 0
-160 36 0
-65 -36 160 0
-161 65 0
-161 37 0
-65 -37 161 0
-162 66 90 114 138 0
-66 162 0
-90 162 0
-114 162 0
-138 162 0
-163 67 91 115 139 0
-67 163 0
-91 163 0
-115 163 0
-139 163 0
-164 68 92 116 140 0
-68 164 0
-92 164 0
-116 164 0
-140 164 0
-165 69 93 117 141 0
-69 165 0
-93 165 0
-117 165 0
-141 165 0
-166 70 94 118 142 0
-70 166 0
-94 166 0
-118 166 0
-142 166 0
-167 71 95 119 143 0
-71 167 0
-95 167 0
-119 167 0
-143 167 0
-168 72 96 120 144 0
-72 168 0
-96 168 0
-120 168 0
-144 168 0
-169 73 97 121 145 0
-73 169 0
-97 169 0
-121 169 0
-145 169 0
-170 74 98 122 146 0
-74 170 0
-98 170 0
-122 170 0
-146 170 0
-171 75 99 123 147 0
-75 171 0
-99 171 0
-123 171 0
-147 171 0
-172 76 100 124 148 0
-76 172 0
-100 172 0
-124 172 0
-148 172 0
-173 77 101 125 149 0
-77 173 0
-101 173 0
-125 173 0
-149 173 0
-174 78 102 126 150 0
-78 174 0
-102 174 0
-126 174 0
-150 174 0
-175 79 103 127 151 0
-79 175 0
-103 175 0
-127 175 0
-151 175 0
-176 80 104 128 152 0
-80 176 0
-104 176 0
-128 176 0
-152 176 0
-177 81 105 129 153 0
-81 177 0
-105 177 0
-129 177 0
-153 177 0
-178 82 106 130 154 0
-82 178 0
-106 178 0
-130 178 0
-154 178 0
-179 83 107 131 155 0
-83 179 0
-107 179 0
-131 179 0
-155 179 0
-180 84 108 132 156 0
-84 180 0
-108 180 0
-132 180 0
-156 180 0
-181 85 109 133 157 0
-85 181 0
-109 181 0
-133 181 0
-157 181 0
-182 86 110 134 158 0
-86 182 0
-110 182 0
-134 182 0
-158 182 0
-183 87 111 135 159 0
-87 183 0
-111 183 0
-135 183 0
-159 183 0
-184 88 112 136 160 0
-88 184 0
-112 184 0
-136 184 0
-160 184 0
-185 89 113 137 161 0
-89 185 0
-113 185 0
-137 185 0
-161 185 0
-66 -90 0
-66 -114 0
-66 -138 0
-90 -114 0
-90 -138 0
-114 -138 0
-67 -91 0
-67 -115 0
-67 -139 0
-91 -115 0
-91 -139 0
-115 -139 0
-68 -92 0
-68 -116 0
-68 -140 0
-92 -116 0
-92 -140 0
-116 -140 0
-69 -93 0
-69 -117 0
-69 -141 0
-93 -117 0
-93 -141 0
-117 -141 0
-70 -94 0
-70 -118 0
-70 -142 0
-94 -118 0
-94 -142 0
-118 -142 0
-71 -95 0
-71 -119 0
-71 -143 0
-95 -119 0
-95 -143 0
-119 -143 0
-72 -96 0
-72 -120 0
-72 -144 0
-96 -120 0
-96 -144 0
-120 -144 0
-73 -97 0
-73 -121 0
-73 -145 0
-97 -121 0
-97 -145 0
-121 -145 0
-74 -98 0
-74 -122 0
-74 -146 0
-98 -122 0
-98 -146 0
-122 -146 0
-75 -99 0
-75 -123 0
-75 -147 0
-99 -123 0
-99 -147 0
-123 -147 0
-76 -100 0
-76 -124 0
-76 -148 0
-100 -124 0
-100 -148 0
-124 -148 0
-77 -101 0
-77 -125 0
-77 -149 0
-101 -125 0
-101 -149 0
-125 -149 0
-78 -102 0
-78 -126 0
-78 -150 0
-102 -126 0
-102 -150 0
-126 -150 0
-79 -103 0
-79 -127 0
-79 -151 0
-103 -127 0
-103 -151 0
-127 -151 0
-80 -104 0
-80 -128 0
-80 -152 0
-104 -128 0
-104 -152 0
-128 -152 0
-81 -105 0
-81 -129 0
-81 -153 0
-105 -129 0
-105 -153 0
-129 -153 0
-82 -106 0
-82 -130 0
-82 -154 0
-106 -130 0
-106 -154 0
-130 -154 0
-83 -107 0
-83 -131 0
-83 -155 0
-107 -131 0
-107 -155 0
-131 -155 0
-84 -108 0
-84 -132 0
-84 -156 0
-108 -132 0
-108 -156 0
-132 -156 0
-85 -109 0
-85 -133 0
-85 -157 0
-109 -133 0
-109 -157 0
-133 -157 0
-86 -110 0
-86 -134 0
-86 -158 0
-110 -134 0
-110 -158 0
-134 -158 0
-87 -111 0
-87 -135 0
-87 -159 0
-111 -135 0
-111 -159 0
-135 -159 0
-88 -112 0
-88 -136 0
-88 -160 0
-112 -136 0
-112 -160 0
-136 -160 0
-89 -113 0
-89 -137 0
-89 -161 0
-113 -137 0
-113 -161 0
-137 -161 0
-1 -23 162 0
-1 -24 163 0
-1 -25 164 0
-2 -23 166 0
-2 -24 167 0
-2 -25 168 0
-3 -23 170 0
-3 -24 171 0
-3 -25 172 0
-4 -23 174 0
-4 -24 175 0
-4 -25 176 0
-5 -23 178 0
-5 -24 179 0
-5 -25 180 0
-6 -23 182 0
-6 -24 183 0
-6 -25 184 0
-7 -27 162 0
-7 -28 163 0
-7 -29 164 0
-8 -27 166 0
-8 -28 167 0
-8 -29 168 0
-9 -27 170 0
-9 -28 171 0
-9 -29 172 0
-10 -27 174 0
-10 -28 175 0
-10 -29 176 0
-11 -27 178 0
-11 -28 179 0
-11 -29 180 0
-12 -27 182 0
-12 -28 183 0
-12 -29 184 0
-13 -31 162 166 0
-13 -32 163 167 0
-13 -33 164 168 0
-14 -31 166 170 0
-14 -32 167 171 0
-14 -33 168 172 0
-15 -31 170 174 0
-15 -32 171 175 0
-15 -33 172 176 0
-16 -31 174 178 0
-16 -32 175 179 0
-16 -33 176 180 0
-17 -31 178 182 0
-17 -32 179 183 0
-17 -33 180 184 0
-18 -35 162 166 0
-18 -35 162 170 0
-18 -35 166 170 0
-18 -36 163 167 0
-18 -36 163 171 0
-18 -36 167 171 0
-18 -37 164 168 0
-18 -37 164 172 0
-18 -37 168 172 0
-19 -35 166 170 0
-19 -35 166 174 0
-19 -35 170 174 0
-19 -36 167 171 0
-19 -36 167 175 0
-19 -36 171 175 0
-19 -37 168 172 0
-19 -37 168 176 0
-19 -37 172 176 0
-20 -35 170 174 0
-20 -35 170 178 0
-20 -35 174 178 0
-20 -36 171 175 0
-20 -36 171 179 0
-20 -36 175 179 0
-20 -37 172 176 0
-20 -37 172 180 0
-20 -37 176 180 0
-21 -35 174 178 0
-21 -35 174 182 0
-21 -35 178 182 0
-21 -36 175 179 0
-21 -36 175 183 0
-21 -36 179 183 0
-21 -37 176 180 0
-21 -37 176 184 0
-21 -37 180 184 0
-1 -22 -38 -163 0
-1 -22 38 163 0
-1 -23 -38 -164 0
-1 -23 38 164 0
-1 -24 -38 -165 0
-1 -24 38 165 0
-1 -25 38 0
-2 -22 -38 -167 0
-2 -22 38 167 0
-2 -23 -38 -168 0
-2 -23 38 168 0
-2 -24 -38 -169 0
-2 -24 38 169 0
-2 -25 38 0
-3 -22 -38 -171 0
-3 -22 38 171 0
-3 -23 -38 -172 0
-3 -23 38 172 0
-3 -24 -38 -173 0
-3 -24 38 173 0
-3 -25 38 0
-4 -22 -38 -175 0
-4 -22 38 175 0
-4 -23 -38 -176 0
-4 -23 38 176 0
-4 -24 -38 -177 0
-4 -24 38 177 0
-4 -25 38 0
-5 -22 -38 -179 0
-5 -22 38 179 0
-5 -23 -38 -180 0
-5 -23 38 180 0
-5 -24 -38 -181 0
-5 -24 38 181 0
-5 -25 38 0
-6 -22 -38 -183 0
-6 -22 38 183 0
-6 -23 -38 -184 0
-6 -23 38 184 0
-6 -24 -38 -185 0
-6 -24 38 185 0
-6 -25 38 0
-7 -26 -39 -163 0
-7 -26 39 163 0
-7 -27 -39 -164 0
-7 -27 39 164 0
-7 -28 -39 -165 0
-7 -28 39 165 0
-7 -29 39 0
-8 -26 -39 -167 0
-8 -26 39 167 0
-8 -27 -39 -168 0
-8 -27 39 168 0
-8 -28 -39 -169 0
-8 -28 39 169 0
-8 -29 39 0
-9 -26 -39 -171 0
-9 -26 39 171 0
-9 -27 -39 -172 0
-9 -27 39 172 0
-9 -28 -39 -173 0
-9 -28 39 173 0
-9 -29 39 0
-10 -26 -39 -175 0
-10 -26 39 175 0
-10 -27 -39 -176 0
-10 -27 39 176 0
-10 -28 -39 -177 0
-10 -28 39 177 0
-10 -29 39 0
-11 -26 -39 -179 0
-11 -26 39 179 0
-11 -27 -39 -180 0
-11 -27 39 180 0
-11 -28 -39 -181 0
-11 -28 39 181 0
-11 -29 39 0
-12 -26 -39 -183 0
-12 -26 39 183 0
-12 -27 -39 -184 0
-12 -27 39 184 0
-12 -28 -39 -185 0
-12 -28 39 185 0
-12 -29 39 0
-13 -30 -40 -163 0
-13 -30 -40 -167 0
-13 -30 40 163 167 0
-13 -31 -40 -164 0
-13 -31 -40 -168 0
-13 -31 40 164 168 0
-13 -32 -40 -165 0
-13 -32 -40 -169 0
-13 -32 40 165 169 0
-13 -33 40 0
-14 -30 -40 -167 0
-14 -30 -40 -171 0
-14 -30 40 167 171 0
-14 -31 -40 -168 0
-14 -31 -40 -172 0
-14 -31 40 168 172 0
-14 -32 -40 -169 0
-14 -32 -40 -173 0
-14 -32 40 169 173 0
-14 -33 40 0
-15 -30 -40 -171 0
-15 -30 -40 -175 0
-15 -30 40 171 175 0
-15 -31 -40 -172 0
-15 -31 -40 -176 0
-15 -31 40 172 176 0
-15 -32 -40 -173 0
-15 -32 -40 -177 0
-15 -32 40 173 177 0
-15 -33 40 0
-16 -30 -40 -175 0
-16 -30 -40 -179 0
-16 -30 40 175 179 0
-16 -31 -40 -176 0
-16 -31 -40 -180 0
-16 -31 40 176 180 0
-16 -32 -40 -177 0
-16 -32 -40 -181 0
-16 -32 40 177 181 0
-16 -33 40 0
-17 -30 -40 -179 0
-17 -30 -40 -183 0
-17 -30 40 179 183 0
-17 -31 -40 -180 0
-17 -31 -40 -184 0
-17 -31 40 180 184 0
-17 -32 -40 -181 0
-17 -32 -40 -185 0
-17 -32 40 181 185 0
-17 -33 40 0
-18 -34 -41 -163 0
-18 -34 -41 -167 0
-18 -34 -41 -171 0
-18 -34 41 163 167 171 0
-18 -35 -41 -164 0
-18 -35 -41 -168 0
-18 -35 -41 -172 0
-18 -35 41 164 168 172 0
-18 -36 -41 -165 0
-18 -36 -41 -169 0
-18 -36 -41 -173 0
-18 -36 41 165 169 173 0
-18 -37 41 0
-19 -34 -41 -167 0
-19 -34 -41 -171 0
-19 -34 -41 -175 0
-19 -34 41 167 171 175 0
-19 -35 -41 -168 0
-19 -35 -41 -172 0
-19 -35 -41 -176 0
-19 -35 41 168 172 176 0
-19 -36 -41 -169 0
-19 -36 -41 -173 0
-19 -36 -41 -177 0
-19 -36 41 169 173 177 0
-19 -37 41 0
-20 -34 -41 -171 0
-20 -34 -41 -175 0
-20 -34 -41 -179 0
-20 -34 41 171 175 179 0
-20 -35 -41 -172 0
-20 -35 -41 -176 0
-20 -35 -41 -180 0
-20 -35 41 172 176 180 0
-20 -36 -41 -173 0
-20 -36 -41 -177 0
-20 -36 -41 -181 0
-20 -36 41 173 177 181 0
-20 -37 41 0
-21 -34 -41 -175 0
-21 -34 -41 -179 0
-21 -34 -41 -183 0
-21 -34 41 175 179 183 0
-21 -35 -41 -176 0
-21 -35 -41 -180 0
-21 -35 -41 -184 0
-21 -35 41 176 180 184 0
-21 -36 -41 -177 0
-21 -36 -41 -181 0
-21 -36 -41 -185 0
-21 -36 41 177 181 185 0
-21 -37 41 0
186 187 188 189 190 191 0
-186 -187 0
-186 -188 0
-186 -189 0
-186 -190 0
-186 -191 0
-187 -188 0
-187 -189 0
-187 -190 0
-187 -191 0
-188 -189 0
-188 -190 0
-188 -191 0
-189 -190 0
-189 -191 0
-190 -191 0
207 208 209 210 0
-207 -208 0
-207 -209 0
-207 -210 0
-208 -209 0
-208 -210 0
-209 -210 0
192 193 194 195 196 197 0
-192 -193 0
-192 -194 0
-192 -195 0
-192 -196 0
-192 -197 0
-193 -194 0
-193 -195 0
-193 -196 0
-193 -197 0
-194 -195 0
-194 -196 0
-194 -197 0
-195 -196 0
-195 -197 0
-196 -197 0
211 212 213 214 0
-211 -212 0
-211 -213 0
-211 -214 0
-212 -213 0
-212 -214 0
-213 -214 0
198 199 200 201 202 0
-198 -199 0
-198 -200 0
-198 -201 0
-198 -202 0
-199 -200 0
-199 -201 0
-199 -202 0
-200 -201 0
-200 -202 0
-201 -202 0
215 216 217 218 0
-215 -216 0
-215 -217 0
-215 -218 0
-216 -217 0
-216 -218 0
-217 -218 0
203 204 205 206 0
-203 -204 0
-203 -205 0
-203 -206 0
-204 -205 0
-204 -206 0
-205 -206 0
219 220 221 222 0
-219 -220 0
-219 -221 0
-219 -222 0
-220 -221 0
-220 -222 0
-221 -222 0
-227 186 0
-186 227 0
-251 227 0
-251 207 0
-227 -207 251 0
-252 227 0
-252 208 0
-227 -208 252 0
-253 227 0
-253 209 0
-227 -209 253 0
-254 227 0
-254 210 0
-227 -210 254 0
-228 187 0
-187 228 0
-255 228 0
-255 207 0
-228 -207 255 0
-256 228 0
-256 208 0
-228 -208 256 0
-257 228 0
-257 209 0
-228 -209 257 0
-258 228 0
-258 210 0
-228 -210 258 0
-229 188 0
-188 229 0
-259 229 0
-259 207 0
-229 -207 259 0
-260 229 0
-260 208 0
-229 -208 260 0
-261 229 0
-261 209 0
-229 -209 261 0
-262 229 0
-262 210 0
-229 -210 262 0
-230 189 0
-189 230 0
-263 230 0
-263 207 0
-230 -207 263 0
-264 230 0
-264 208 0
-230 -208 264 0
-265 230 0
-265 209 0
-230 -209 265 0
-266 230 0
-266 210 0
-230 -210 266 0
-231 190 0
-190 231 0
-267 231 0
-267 207 0
-231 -207 267 0
-268 231 0
-268 208 0
-231 -208 268 0
-269 231 0
-269 209 0
-231 -209 269 0
-270 231 0
-270 210 0
-231 -210 270 0
-232 191 0
-191 232 0
-271 232 0
-271 207 0
-232 -207 271 0
-272 232 0
-272 208 0
-232 -208 272 0
-273 232 0
-273 209 0
-232 -209 273 0
-274 232 0
-274 210 0
-232 -210 274 0
-233 192 0
-192 233 0
-275 233 0
-275 211 0
-233 -211 275 0
-276 233 0
-276 212 0
-233 -212 276 0
-277 233 0
-277 213 0
-233 -213 277 0
-278 233 0
-278 214 0
-233 -214 278 0
-234 193 0
-193 234 0
-279 234 0
-279 211 0
-234 -211 279 0
-280 234 0
-280 212 0
-234 -212 280 0
-281 234 0
-281 213 0
-234 -213 281 0
-282 234 0
-282 214 0
-234 -214 282 0
-235 194 0
-194 235 0
-283 235 0
-283 211 0
-235 -211 283 0
-284 235 0
-284 212 0
-235 -212 284 0
-285 235 0
-285 213 0
-235 -213 285 0
-286 235 0
-286 214 0
-235 -214 286 0
-236 195 0
-195 236 0
-287 236 0
-287 211 0
-236 -211 287 0
-288 236 0
-288 212 0
-236 -212 288 0
-289 236 0
-289 213 0
-236 -213 289 0
-290 236 0
-290 214 0
-236 -214 290 0
-237 196 0
-196 237 0
-291 237 0
-291 211 0
-237 -211 291 0
-292 237 0
-292 212 0
-237 -212 292 0
-293 237 0
-293 213 0
-237 -213 293 0
-294 237 0
-294 214 0
-237 -214 294 0
-238 197 0
-197 238 0
-295 238 0
-295 211 0
-238 -211 295 0
-296 238 0
-296 212 0
-238 -212 296 0
-297 238 0
-297 213 0
-238 -213 297 0
-298 238 0
-298 214 0
-238 -214 298 0
-239 198 0
-198 239 0
-299 239 0
-299 215 0
-239 -215 299 0
-300 239 0
-300 216 0
-239 -216 300 0
-301 239 0
-301 217 0
-239 -217 301 0
-302 239 0
-302 218 0
-239 -218 302 0
-240 198 199 0
-198 240 0
-199 240 0
-303 240 0
-303 215 0
-240 -215 303 0
-304 240 0
-304 216 0
-240 -216 304 0
-305 240 0
-305 217 0
-240 -217 305 0
-306 240 0
-306 218 0
-240 -218 306 0
-241 199 200 0
-199 241 0
-200 241 0
-307 241 0
-307 215 0
-241 -215 307 0
-308 241 0
-308 216 0
-241 -216 308 0
-309 241 0
-309 217 0
-241 -217 309 0
-310 241 0
-310 218 0
-241 -218 310 0
-242 200 201 0
-200 242 0
-201 242 0
-311 242 0
-311 215 0
-242 -215 311 0
-312 242 0
-312 216 0
-242 -216 312 0
-313 242 0
-313 217 0
-242 -217 313 0
-314 242 0
-314 218 0
-242 -218 314 0
-243 201 202 0
-201 243 0
-202 243 0
-315 243 0
-315 215 0
-243 -215 315 0
-316 243 0
-316 216 0
-243 -216 316 0
-317 243 0
-317 217 0
-243 -217 317 0
-318 243 0
-318 218 0
-243 -218 318 0
-244 202 0
-202 244 0
-319 244 0
-319 215 0
-244 -215 319 0
-320 244 0
-320 216 0
-244 -216 320 0
-321 244 0
-321 217 0
-244 -217 321 0
-322 244 0
-322 218 0
-244 -218 322 0
-245 203 0
-203 245 0
-323 245 0
-323 219 0
-245 -219 323 0
-324 245 0
-324 220 0
-245 -220 324 0
-325 245 0
-325 221 0
-245 -221 325 0
-326 245 0
-326 222 0
-245 -222 326 0
-246 203 204 0
-203 246 0
-204 246 0
-327 246 0
-327 219 0
-246 -219 327 0
-328 246 0
-328 220 0
-246 -220 328 0
-329 246 0
-329 221 0
-246 -221 329 0
-330 246 0
-330 222 0
-246 -222 330 0
-247 203 204 205 0
-203 247 0
-204 247 0
-205 247 0
-331 247 0
-331 219 0
-247 -219 331 0
-332 247 0
-332 220 0
-247 -220 332 0
-333 247 0
-333 221 0
-247 -221 333 0
-334 247 0
-334 222 0
-247 -222 334 0
-248 204 205 206 0
-204 248 0
-205 248 0
-206 248 0
-335 248 0
-335 219 0
-248 -219 335 0
-336 248 0
-336 220 0
-248 -220 336 0
-337 248 0
-337 221 0
-248 -221 337 0
-338 248 0
-338 222 0
-248 -222 338 0
-249 205 206 0
-205 249 0
-206 249 0
-339 249 0
-339 219 0
-249 -219 339 0
-340 249 0
-340 220 0
-249 -220 340 0
-341 249 0
-341 221 0
-249 -221 341 0
-342 249 0
-342 222 0
-249 -222 342 0
-250 206 0
-206 250 0
-343 250 0
-343 219 0
-250 -219 343 0
-344 250 0
-344 220 0
-250 -220 344 0
-345 250 0
-345 221 0
-250 -221 345 0
-346 250 0
-346 222 0
-250 -222 346 0
-347 251 275 299 323 0
-251 347 0
-275 347 0
-299 347 0
-323 347 0
-348 252 276 300 324 0
-252 348 0
-276 348 0
-300 348 0
-324 348 0
-349 253 277 301 325 0
-253 349 0
-277 349 0
-301 349 0
-325 349 0
-350 254 278 302 326 0
-254 350 0
-278 350 0
-302 350 0
-326 350 0
-351 255 279 303 327 0
-255 351 0
-279 351 0
-303 351 0
-327 351 0
-352 256 280 304 328 0
-256 352 0
-280 352 0
-304 352 0
-328 352 0
-353 257 281 305 329 0
-257 353 0
-281 353 0
-305 353 0
-329 353 0
-354 258 282 306 330 0
-258 354 0
-282 354 0
-306 354 0
-330 354 0
-355 259 283 307 331 0
-259 355 0
-283 355 0
-307 355 0
-331 355 0
-356 260 284 308 332 0
-260 356 0
-284 356 0
-308 356 0
-332 356 0
-357 261 285 309 333 0
-261 357 0
-285 357 0
-309 357 0
-333 357 0
-358 262 286 310 334 0
-262 358 0
-286 358 0
-310 358 0
-334 358 0
-359 263 287 311 335 0
-263 359 0
-287 359 0
-311 359 0
-335 359 0
-360 264 288 312 336 0
-264 360 0
-288 360 0
-312 360 0
-336 360 0
-361 265 289 313 337 0
-265 361 0
-289 361 0
-313 361 0
-337 361 0
-362 266 290 314 338 0
-266 362 0
-290 362 0
-314 362 0
-338 362 0
-363 267 291 315 339 0
-267 363 0
-291 363 0
-315 363 0
-339 363 0
-364 268 292 316 340 0
-268 364 0
-292 364 0
-316 364 0
-340 364 0
-365 269 293 317 341 0
-269 365 0
-293 365 0
-317 365 0
-341 365 0
-366 270 294 318 342 0
-270 366 0
-294 366 0
-318 366 0
-342 366 0
-367 271 295 319 343 0
-271 367 0
-295 367 0
-319 367 0
-343 367 0
-368 272 296 320 344 0
-272 368 0
-296 368 0
-320 368 0
-344 368 0
-369 273 297 321 345 0
-273 369 0
-297 369 0
-321 369 0
-345 369 0
-370 274 298 322 346 0
-274 370 0
-298 370 0
-322 370 0
-346 370 0
-251 -275 0
-251 -299 0
-251 -323 0
-275 -299 0
-275 -323 0
-299 -323 0
-252 -276 0
-252 -300 0
-252 -324 0
-276 -300 0
-276 -324 0
-300 -324 0
-253 -277 0
-253 -301 0
-253 -325 0
-277 -301 0
-277 -325 0
-301 -325 0
-254 -278 0
-254 -302 0
-254 -326 0
-278 -302 0
-278 -326 0
-302 -326 0
-255 -279 0
-255 -303 0
-255 -327 0
-279 -303 0
-279 -327 0
-303 -327 0
-256 -280 0
-256 -304 0
-256 -328 0
-280 -304 0
-280 -328 0
-304 -328 0
-257 -281 0
-257 -305 0
-257 -329 0
-281 -305 0
-281 -329 0
-305 -329 0
-258 -282 0
-258 -306 0
-258 -330 0
-282 -306 0
-282 -330 0
-306 -330 0
-259 -283 0
-259 -307 0
-259 -331 0
-283 -307 0
-283 -331 0
-307 -331 0
-260 -284 0
-260 -308 0
-260 -332 0
-284 -308 0
-284 -332 0
-308 -332 0
-261 -285 0
-261 -309 0
-261 -333 0
-285 -309 0
-285 -333 0
-309 -333 0
-262 -286 0
-262 -310 0
-262 -334 0
-286 -310 0
-286 -334 0
-310 -334 0
-263 -287 0
-263 -311 0
-263 -335 0
-287 -311 0
-287 -335 0
-311 -335 0
-264 -288 0
-264 -312 0
-264 -336 0
-288 -312 0
-288 -336 0
-312 -336 0
-265 -289 0
-265 -313 0
-265 -337 0
-289 -313 0
-289 -337 0
-313 -337 0
-266 -290 0
-266 -314 0
-266 -338 0
-290 -314 0
-290 -338 0
-314 -338 0
-267 -291 0
-267 -315 0
-267 -339 0
-291 -315 0
-291 -339 0
-315 -339 0
-268 -292 0
-268 -316 0
-268 -340 0
-292 -316 0
-292 -340 0
-316 -340 0
-269 -293 0
-269 -317 0
-269 -341 0
-293 -317 0
-293 -341 0
-317 -341 0
-270 -294 0
-270 -318 0
-270 -342 0
-294 -318 0
-294 -342 0
-318 -342 0
-271 -295 0
-271 -319 0
-271 -343 0
-295 -319 0
-295 -343 0
-319 -343 0
-272 -296 0
-272 -320 0
-272 -344 0
-296 -320 0
-296 -344 0
-320 -344 0
-273 -297 0
-273 -321 0
-273 -345 0
-297 -321 0
-297 -345 0
-321 -345 0
-274 -298 0
-274 -322 0
-274 -346 0
-298 -322 0
-298 -346 0
-322 -346 0
-186 -208 347 0
-186 -209 348 0
-186 -210 349 0
-187 -208 351 0
-187 -209 352 0
-187 -210 353 0
-188 -208 355 0
-188 -209 356 0
-188 -210 357 0
-189 -208 359 0
-189 -209 360 0
-189 -210 361 0
-190 -208 363 0
-190 -209 364 0
-190 -210 365 0
-191 -208 367 0
-191 -209 368 0
-191 -210 369 0
-192 -212 347 0
-192 -213 348 0
-192 -214 349 0
-193 -212 351 0
-193 -213 352 0
-193 -214 353 0
-194 -212 355 0
-194 -213 356 0
-194 -214 357 0
-195 -212 359 0
-195 -213 360 0
-195 -214 361 0
-196 -212 363 0
-196 -213 364 0
-196 -214 365 0
-197 -212 367 0
-197 -213 368 0
-197 -214 369 0
-198 -216 347 351 0
-198 -217 348 352 0
-198 -218 349 353 0
-199 -216 351 355 0
-199 -217 352 356 0
-199 -218 353 357 0
-200 -216 355 359 0
-200 -217 356 360 0
-200 -218 357 361 0
-201 -216 359 363 0
-201 -217 360 364 0
-201 -218 361 365 0
-202 -216 363 367 0
-202 -217 364 368 0
-202 -218 365 369 0
-203 -220 347 351 0
-203 -220 347 355 0
-203 -220 351 355 0
-203 -221 348 352 0
-203 -221 348 356 0
-203 -221 352 356 0
-203 -222 349 353 0
-203 -222 349 357 0
-203 -222 353 357 0
-204 -220 351 355 0
-204 -220 351 359 0
-204 -220 355 359 0
-204 -221 352 356 0
-204 -221 352 360 0
-204 -221 356 360 0
-204 -222 353 357 0
-204 -222 353 361 0
-204 -222 357 361 0
-205 -220 355 359 0
-205 -220 355 363 0
-205 -220 359 363 0
-205 -221 356 360 0
-205 -221 356 364 0
-205 -221 360 364 0
-205 -222 357 361 0
-205 -222 357 365 0
-205 -222 361 365 0
-206 -220 359 363 0
-206 -220 359 367 0
-206 -220 363 367 0
-206 -221 360 364 0
-206 -221 360 368 0
-206 -221 364 368 0
-206 -222 361 365 0
-206 -222 361 369 0
-206 -222 365 369 0
-186 -207 -223 -348 0
-186 -207 223 348 0
-186 -208 -223 -349 0
-186 -208 223 349 0
-186 -209 -223 -350 0
-186 -209 223 350 0
-186 -210 223 0
-187 -207 -223 -352 0
-187 -207 223 352 0
-187 -208 -223 -353 0
-187 -208 223 353 0
-187 -209 -223 -354 0
-187 -209 223 354 0
-187 -210 223 0
-188 -207 -223 -356 0
-188 -207 223 356 0
-188 -208 -223 -357 0
-188 -208 223 357 0
-188 -209 -223 -358 0
-188 -209 223 358 0
-188 -210 223 0
-189 -207 -223 -360 0
-189 -207 223 360 0
-189 -208 -223 -361 0
-189 -208 223 361 0
-189 -209 -223 -362 0
-189 -209 223 362 0
-189 -210 223 0
-190 -207 -223 -364 0
-190 -207 223 364 0
-190 -208 -223 -365 0
-190 -208 223 365 0
-190 -209 -223 -366 0
-190 -209 223 366 0
-190 -210 223 0
-191 -207 -223 -368 0
-191 -207 223 368 0
-191 -208 -223 -369 0
-191 -208 223 369 0
-191 -209 -223 -370 0
-191 -209 223 370 0
-191 -210 223 0
-192 -211 -224 -348 0
-192 -211 224 348 0
-192 -212 -224 -349 0
-192 -212 224 349 0
-192 -213 -224 -350 0
-192 -213 224 350 0
-192 -214 224 0
-193 -211 -224 -352 0
-193 -211 224 352 0
-193 -212 -224 -353 0
-193 -212 224 353 0
-193 -213 -224 -354 0
-193 -213 224 354 0
-193 -214 224 0
-194 -211 -224 -356 0
-194 -211 224 356 0
-194 -212 -224 -357 0
-194 -212 224 357 0
-194 -213 -224 -358 0
-194 -213 224 358 0
-194 -214 224 0
-195 -211 -224 -360 0
-195 -211 224 360 0
-195 -212 -224 -361 0
-195 -212 224 361 0
-195 -213 -224 -362 0
-195 -213 224 362 0
-195 -214 224 0
-196 -211 -224 -364 0
-196 -211 224 364 0
-196 -212 -224 -365 0
-196 -212 224 365 0
-196 -213 -224 -366 0
-196 -213 224 366 0
-196 -214 224 0
-197 -211 -224 -368 0
-197 -211 224 368 0
-197 -212 -224 -369 0
-197 -212 224 369 0
-197 -213 -224 -370 0
-197 -213 224 370 0
-197 -214 224 0
-198 -215 -225 -348 0
-198 -215 -225 -352 0
-198 -215 225 348 352 0
-198 -216 -225 -349 0
-198 -216 -225 -353 0
-198 -216 225 349 353 0
-198 -217 -225 -350 0
-198 -217 -225 -354 0
-198 -217 225 350 354 0
-198 -218 225 0
-199 -215 -225 -352 0
-199 -215 -225 -356 0
-199 -215 225 352 356 0
-199 -216 -225 -353 0
-199 -216 -225 -357 0
-199 -216 225 353 357 0
-199 -217 -225 -354 0
-199 -217 -225 -358 0
-199 -217 225 354 358 0
-199 -218 225 0
-200 -215 -225 -356 0
-200 -215 -225 -360 0
-200 -215 225 356 360 0
-200 -216 -225 -357 0
-200 -216 -225 -361 0
-200 -216 225 357 361 0
-200 -217 -225 -358 0
-200 -217 -225 -362 0
-200 -217 225 358 362 0
-200 -218 225 0
-201 -215 -225 -360 0
-201 -215 -225 -364 0
-201 -215 225 360 364 0
-201 -216 -225 -361 0
-201 -216 -225 -365 0
-201 -216 225 361 365 0
-201 -217 -225 -362 0
-201 -217 -225 -366 0
-201 -217 225 362 366 0
-201 -218 225 0
-202 -215 -225 -364 0
-202 -215 -225 -368 0
-202 -215 225 364 368 0
-202 -216 -225 -365 0
-202 -216 -225 -369 0
-202 -216 225 365 369 0
-202 -217 -225 -366 0
-202 -217 -225 -370 0
-202 -217 225 366 370 0
-202 -218 225 0
-203 -219 -226 -348 0
-203 -219 -226 -352 0
-203 -219 -226 -356 0
-203 -219 226 348 352 356 0
-203 -220 -226 -349 0
-203 -220 -226 -353 0
-203 -220 -226 -357 0
-203 -220 226 349 353 357 0
-203 -221 -226 -350 0
-203 -221 -226 -354 0
-203 -221 -226 -358 0
-203 -221 226 350 354 358 0
-203 -222 226 0
-204 -219 -226 -352 0
-204 -219 -226 -356 0
-204 -219 -226 -360 0
-204 -219 226 352 356 360 0
-204 -220 -226 -353 0
-204 -220 -226 -357 0
-204 -220 -226 -361 0
-204 -220 226 353 357 361 0
-204 -221 -226 -354 0
-204 -221 -226 -358 0
-204 -221 -226 -362 0
-204 -221 226 354 358 362 0
-204 -222 226 0
-205 -219 -226 -356 0
-205 -219 -226 -360 0
-205 -219 -226 -364 0
-205 -219 226 356 360 364 0
-205 -220 -226 -357 0
-205 -220 -226 -361 0
-205 -220 -226 -365 0
-205 -220 226 357 361 365 0
-205 -221 -226 -358 0
-205 -221 -226 -362 0
-205 -221 -226 -366 0
-205 -221 226 358 362 366 0
-205 -222 226 0
-206 -219 -226 -360 0
-206 -219 -226 -364 0
-206 -219 -226 -368 0
-206 -219 226 360 364 368 0
-206 -220 -226 -361 0
-206 -220 -226 -365 0
-206 -220 -226 -369 0
-206 -220 226 361 365 369 0
-206 -221 -226 -362 0
-206 -221 -226 -366 0
-206 -221 -226 -370 0
-206 -221 226 362 366 370 0
-206 -222 226 0
371 372 373 374 375 376 0
-371 -372 0
-371 -373 0
-371 -374 0
-371 -375 0
-371 -376 0
-372 -373 0
-372 -374 0
-372 -375 0
-372 -376 0
-373 -374 0
-373 -375 0
-373 -376 0
-374 -375 0
-374 -376 0
-375 -376 0
392 393 394 395 0
-392 -393 0
-392 -394 0
-392 -395 0
-393 -394 0
-393 -395 0
-394 -395 0
377 378 379 380 381 382 0
-377 -378 0
-377 -379 0
-377 -380 0
-377 -381 0
-377 -382 0
-378 -379 0
-378 -380 0
-378 -381 0
-378 -382 0
-379 -380 0
-379 -381 0
-379 -382 0
-380 -381 0
-380 -382 0
-381 -382 0
396 397 398 399 0
-396 -397 0
-396 -398 0
-396 -399 0
-397 -398 0
-397 -399 0
-398 -399 0
383 384 385 386 387 0
-383 -384 0
-383 -385 0
-383 -386 0
-383 -387 0
-384 -385 0
-384 -386 0
-384 -387 0
-385 -386 0
-385 -387 0
-386 -387 0
400 401 402 403 0
-400 -401 0
-400 -402 0
-400 -403 0
-401 -402 0
-401 -403 0
-402 -403 0
388 389 390 391 0
-388 -389 0
-388 -390 0
-388 -391 0
-389 -390 0
-389 -391 0
-390 -391 0
404 405 406 407 0
-404 -405 0
-404 -406 0
-404 -407 0
-405 -406 0
-405 -407 0
-406 -407 0
-412 371 0
-371 412 0
-436 412 0
-436 392 0
-412 -392 436 0
-437 412 0
-437 393 0
-412 -393 437 0
-438 412 0
-438 394 0
-412 -394 438 0
-439 412 0
-439 395 0
-412 -395 439 0
-413 372 0
-372 413 0
-440 413 0
-440 392 0
-413 -392 440 0
-441 413 0
-441 393 0
-413 -393 441 0
-442 413 0
-442 394 0
-413 -394 442 0
-443 413 0
-443 395 0
-413 -395 443 0
-414 373 0
-373 414 0
-444 414 0
-444 392 0
-414 -392 444 0
-445 414 0
-445 393 0
-414 -393 445 0
-446 414 0
-446 394 0
-414 -394 446 0
-447 414 0
-447 395 0
-414 -395 447 0
-415 374 0
-374 415 0
-448 415 0
-448 392 0
-415 -392 448 0
-449 415 0
-449 393 0
-415 -393 449 0
-450 415 0
-450 394 0
-415 -394 450 0
-451 415 0
-451 395 0
-415 -395 451 0
-416 375 0
-375 416 0
-452 416 0
-452 392 0
-416 -392 452 0
-453 416 0
-453 393 0
-416 -393 453 0
-454 416 0
-454 394 0
-416 -394 454 0
-455 416 0
-455 395 0
-416 -395 455 0
-417 376 0
-376 417 0
-456 417 0
-456 392 0
-417 -392 456 0
-457 417 0
-457 393 0
-417 -393 457 0
-458 417 0
-458 394 0
-417 -394 458 0
-459 417 0
-459 395 0
-417 -395 459 0
-418 377 0
-377 418 0
-460 418 0
-460 396 0
-418 -396 460 0
-461 418 0
-461 397 0
-418 -397 461 0
-462 418 0
-462 398 0
-418 -398 462 0
-463 418 0
-463 399 0
-418 -399 463 0
-419 378 0
-378 419 0
-464 419 0
-464 396 0
-419 -396 464 0
-465 419 0
-465 397 0
-419 -397 465 0
-466 419 0
-466 398 0
-419 -398 466 0
-467 419 0
-467 399 0
-419 -399 467 0
-420 379 0
-379 420 0
-468 420 0
-468 396 0
-420 -396 468 0
-469 420 0
-469 397 0
-420 -397 469 0
-470 420 0
-470 398 0
-420 -398 470 0
-471 420 0
-471 399 0
-420 -399 471 0
-421 380 0
-380 421 0
-472 421 0
-472 396 0
-421 -396 472 0
-473 421 0
-473 397 0
-421 -397 473 0
-474 421 0
-474 398 0
-421 -398 474 0
-475 421 0
-475 399 0
-421 -399 475 0
-422 381 0
-381 422 0
-476 422 0
-476 396 0
-422 -396 476 0
-477 422 0
-477 397 0
-422 -397 477 0
-478 422 0
-478 398 0
-422 -398 478 0
-479 422 0
-479 399 0
-422 -399 479 0
-423 382 0
-382 423 0
-480 423 0
-480 396 0
-423 -396 480 0
-481 423 0
-481 397 0
-423 -397 481 0
-482 423 0
-482 398 0
-423 -398 482 0
-483 423 0
-483 399 0
-423 -399 483 0
-424 383 0
-383 424 0
-484 424 0
-484 400 0
-424 -400 484 0
-485 424 0
-485 401 0
-424 -401 485 0
-486 424 0
-486 402 0
-424 -402 486 0
-487 424 0
-487 403 0
-424 -403 487 0
-425 383 384 0
-383 425 0
-384 425 0
-488 425 0
-488 400 0
-425 -400 488 0
-489 425 0
-489 401 0
-425 -401 489 0
-490 425 0
-490 402 0
-425 -402 490 0
-491 425 0
-491 403 0
-425 -403 491 0
-426 384 385 0
-384 426 0
-385 426 0
-492 426 0
-492 400 0
-426 -400 492 0
-493 426 0
-493 401 0
-426 -401 493 0
-494 426 0
-494 402 0
-426 -402 494 0
-495 426 0
-495 403 0
-426 -403 495 0
-427 385 386 0
-385 427 0
-386 427 0
-496 427 0
-496 400 0
-427 -400 496 0
-497 427 0
-497 401 0
-427 -401 497 0
-498 427 0
-498 402 0
-427 -402 498 0
-499 427 0
-499 403 0
-427 -403 499 0
-428 386 387 0
-386 428 0
-387 428 0
-500 428 0
-500 400 0
-428 -400 500 0
-501 428 0
-501 401 0
-428 -401 501 0
-502 428 0
-502 402 0
-428 -402 502 0
-503 428 0
-503 403 0
-428 -403 503 0
-429 387 0
-387 429 0
-504 429 0
-504 400 0
-429 -400 504 0
-505 429 0
-505 401 0
-429 -401 505 0
-506 429 0
-506 402 0
-429 -402 506 0
-507 429 0
-507 403 0
-429 -403 507 0
-430 388 0
-388 430 0
-508 430 0
-508 404 0
-430 -404 508 0
-509 430 0
-509 405 0
-430 -405 509 0
-510 430 0
-510 406 0
-430 -406 510 0
-511 430 0
-511 407 0
-430 -407 511 0
-431 388 389 0
-388 431 0
-389 431 0
-512 431 0
-512 404 0
-431 -404 512 0
-513 431 0
-513 405 0
-431 -405 513 0
-514 431 0
-514 406 0
-431 -406 514 0
-515 431 0
-515 407 0
-431 -407 515 0
-432 388 389 390 0
-388 432 0
-389 432 0
-390 432 0
-516 432 0
-516 404 0
-432 -404 516 0
-517 432 0
-517 405 0
-432 -405 517 0
-518 432 0
-518 406 0
-432 -406 518 0
-519 432 0
-519 407 0
-432 -407 519 0
-433 389 390 391 0
-389 433 0
-390 433 0
-391 433 0
-520 433 0
-520 404 0
-433 -404 520 0
-521 433 0
-521 405 0
-433 -405 521 0
-522 433 0
-522 406 0
-433 -406 522 0
-523 433 0
-523 407 0
-433 -407 523 0
-434 390 391 0
-390 434 0
-391 434 0
-524 434 0
-524 404 0
-434 -404 524 0
-525 434 0
-525 405 0
-434 -405 525 0
-526 434 0
-526 406 0
-434 -406 526 0
-527 434 0
-527 407 0
-434 -407 527 0
-435 391 0
-391 435 0
-528 435 0
-528 404 0
-435 -404 528 0
-529 435 0
-529 405 0
-435 -405 529 0
-530 435 0
-530 406 0
-435 -406 530 0
-531 435 0
-531 407 0
-435 -407 531 0
-532 436 460 484 508 0
-436 532 0
-460 532 0
-484 532 0
-508 532 0
-533 437 461 485 509 0
-437 533 0
-461 533 0
-485 533 0
-509 533 0
-534 438 462 486 510 0
-438 534 0
-462 534 0
-486 534 0
-510 534 0
-535 439 463 487 511 0
-439 535 0
-463 535 0
-487 535 0
-511 535 0
-536 440 464 488 512 0
-440 536 0
-464 536 0
-488 536 0
-512 536 0
-537 441 465 489 513 0
-441 537 0
-465 537 0
-489 537 0
-513 537 0
-538 442 466 490 514 0
-442 538 0
-466 538 0
-490 538 0
-514 538 0
-539 443 467 491 515 0
-443 539 0
-467 539 0
-491 539 0
-515 539 0
-540 444 468 492 516 0
-444 540 0
-468 540 0
-492 540 0
-516 540 0
-541 445 469 493 517 0
-445 541 0
-469 541 0
-493 541 0
-517 541 0
-542 446 470 494 518 0
-446 542 0
-470 542 0
-494 542 0
-518 542 0
-543 447 471 495 519 0
-447 543 0
-471 543 0
-495 543 0
-519 543 0
-544 448 472 496 520 0
-448 544 0
-472 544 0
-496 544 0
-520 544 0
-545 449 473 497 521 0
-449 545 0
-473 545 0
-497 545 0
-521 545 0
-546 450 474 498 522 0
-450 546 0
-474 546 0
-498 546 0
-522 546 0
-547 451 475 499 523 0
-451 547 0
-475 547 0
-499 547 0
-523 547 0
-548 452 476 500 524 0
-452 548 0
-476 548 0
-500 548 0
-524 548 0
-549 453 477 501 525 0
-453 549 0
-477 549 0
-501 549 0
-525 549 0
-550 454 478 502 526 0
-454 550 0
-478 550 0
-502 550 0
-526 550 0
-551 455 479 503 527 0
-455 551 0
-479 551 0
-503 551 0
-527 551 0
-552 456 480 504 528 0
-456 552 0
-480 552 0
-504 552 0
-528 552 0
-553 457 481 505 529 0
-457 553 0
-481 553 0
-505 553 0
-529 553 0
-554 458 482 506 530 0
-458 554 0
-482 554 0
-506 554 0
-530 554 0
-555 459 483 507 531 0
-459 555 0
-483 555 0
-507 555 0
-531 555 0
-436 -460 0
-436 -484 0
-436 -508 0
-460 -484 0
-460 -508 0
-484 -508 0
-437 -461 0
-437 -485 0
-437 -509 0
-461 -485 0
-461 -509 0
-485 -509 0
-438 -462 0
-438 -486 0
-438 -510 0
-462 -486 0
-462 -510 0
-486 -510 0
-439 -463 0
-439 -487 0
-439 -511 0
-463 -487 0
-463 -511 0
-487 -511 0
-440 -464 0
-440 -488 0
-440 -512 0
-464 -488 0
-464 -512 0
-488 -512 0
-441 -465 0
-441 -489 0
-441 -513 0
-465 -489 0
-465 -513 0
-489 -513 0
-442 -466 0
-442 -490 0
-442 -514 0
-466 -490 0
-466 -514 0
-490 -514 0
-443 -467 0
-443 -491 0
-443 -515 0
-467 -491 0
-467 -515 0
-491 -515 0
-444 -468 0
-444 -492 0
-444 -516 0
-468 -492 0
-468 -516 0
-492 -516 0
-445 -469 0
-445 -493 0
-445 -517 0
-469 -493 0
-469 -517 0
-493 -517 0
-446 -470 0
-446 -494 0
-446 -518 0
-470 -494 0
-470 -518 0
-494 -518 0
-447 -471 0
-447 -495 0
-447 -519 0
-471 -495 0
-471 -519 0
-495 -519 0
-448 -472 0
-448 -496 0
-448 -520 0
-472 -496 0
-472 -520 0
-496 -520 0
-449 -473 0
-449 -497 0
-449 -521 0
-473 -497 0
-473 -521 0
-497 -521 0
-450 -474 0
-450 -498 0
-450 -522 0
-474 -498 0
-474 -522 0
-498 -522 0
-451 -475 0
-451 -499 0
-451 -523 0
-475 -499 0
-475 -523 0
-499 -523 0
-452 -476 0
-452 -500 0
-452 -524 0
-476 -500 0
-476 -524 0
-500 -524 0
-453 -477 0
-453 -501 0
-453 -525 0
-477 -501 0
-477 -525 0
-501 -525 0
-454 -478 0
-454 -502 0
-454 -526 0
-478 -502 0
-478 -526 0
-502 -526 0
-455 -479 0
-455 -503 0
-455 -527 0
-479 -503 0
-479 -527 0
-503 -527 0
-456 -480 0
-456 -504 0
-456 -528 0
-480 -504 0
-480 -528 0
-504 -528 0
-457 -481 0
-457 -505 0
-457 -529 0
-481 -505 0
-481 -529 0
-505 -529 0
-458 -482 0
-458 -506 0
-458 -530 0
-482 -506 0
-482 -530 0
-506 -530 0
-459 -483 0
-459 -507 0
-459 -531 0
-483 -507 0
-483 -531 0
-507 -531 0
-371 -393 532 0
-371 -394 533 0
-371 -395 534 0
-372 -393 536 0
-372 -394 537 0
-372 -395 538 0
-373 -393 540 0
-373 -394 541 0
-373 -395 542 0
-374 -393 544 0
-374 -394 545 0
-374 -395 546 0
-375 -393 548 0
-375 -394 549 0
-375 -395 550 0
-376 -393 552 0
-376 -394 553 0
-376 -395 554 0
-377 -397 532 0
-377 -398 533 0
-377 -399 534 0
-378 -397 536 0
-378 -398 537 0
-378 -399 538 0
-379 -397 540 0
-379 -398 541 0
-379 -399 542 0
-380 -397 544 0
-380 -398 545 0
-380 -399 546 0
-381 -397 548 0
-381 -398 549 0
-381 -399 550 0
-382 -397 552 0
-382 -398 553 0
-382 -399 554 0
-383 -401 532 536 0
-383 -402 533 537 0
-383 -403 534 538 0
-384 -401 536 540 0
-384 -402 537 541 0
-384 -403 538 542 0
-385 -401 540 544 0
-385 -402 541 545 0
-385 -403 542 546 0
-386 -401 544 548 0
-386 -402 545 549 0
-386 -403 546 550 0
-387 -401 548 552 0
-387 -402 549 553 0
-387 -403 550 554 0
-388 -405 532 536 0
-388 -405 532 540 0
-388 -405 536 540 0
-388 -406 533 537 0
-388 -406 533 541 0
-388 -406 537 541 0
-388 -407 534 538 0
-388 -407 534 542 0
-388 -407 538 542 0
-389 -405 536 540 0
-389 -405 536 544 0
-389 -405 540 544 0
-389 -406 537 541 0
-389 -406 537 545 0
-389 -406 541 545 0
-389 -407 538 542 0
-389 -407 538 546 0
-389 -407 542 546 0
-390 -405 540 544 0
-390 -405 540 548 0
-390 -405 544 548 0
-390 -406 541 545 0
-390 -406 541 549 0
-390 -406 545 549 0
-390 -407 542 546 0
-390 -407 542 550 0
-390 -407 546 550 0
-391 -405 544 548 0
-391 -405 544 552 0
-391 -405 548 552 0
-391 -406 545 549 0
-391 -406 545 553 0
-391 -406 549 553 0
-391 -407 546 550 0
-391 -407 546 554 0
-391 -407 550 554 0
-371 -392 -408 -533 0
-371 -392 408 533 0
-371 -393 -408 -534 0
-371 -393 408 534 0
-371 -394 -408 -535 0
-371 -394 408 535 0
-371 -395 408 0
-372 -392 -408 -537 0
-372 -392 408 537 0
-372 -393 -408 -538 0
-372 -393 408 538 0
-372 -394 -408 -539 0
-372 -394 408 539 0
-372 -395 408 0
-373 -392 -408 -541 0
-373 -392 408 541 0
-373 -393 -408 -542 0
-373 -393 408 542 0
-373 -394 -408 -543 0
-373 -394 408 543 0
-373 -395 408 0
-374 -392 -408 -545 0
-374 -392 408 545 0
-374 -393 -408 -546 0
-374 -393 408 546 0
-374 -394 -408 -547 0
-374 -394 408 547 0
-374 -395 408 0
-375 -392 -408 -549 0
-375 -392 408 549 0
-375 -393 -408 -550 0
-375 -393 408 550 0
-375 -394 -408 -551 0
-375 -394 408 551 0
-375 -395 408 0
-376 -392 -408 -553 0
-376 -392 408 553 0
-376 -393 -408 -554 0
-376 -393 408 554 0
-376 -394 -408 -555 0
-376 -394 408 555 0
-376 -395 408 0
-377 -396 -409 -533 0
-377 -396 409 533 0
-377 -397 -409 -534 0
-377 -397 409 534 0
-377 -398 -409 -535 0
-377 -398 409 535 0
-377 -399 409 0
-378 -396 -409 -537 0
-378 -396 409 537 0
-378 -397 -409 -538 0
-378 -397 409 538 0
-378 -398 -409 -539 0
-378 -398 409 539 0
-378 -399 409 0
-379 -396 -409 -541 0
-379 -396 409 541 0
-379 -397 -409 -542 0
-379 -397 409 542 0
-379 -398 -409 -543 0
-379 -398 409 543 0
-379 -399 409 0
-380 -396 -409 -545 0
-380 -396 409 545 0
-380 -397 -409 -546 0
-380 -397 409 546 0
-380 -398 -409 -547 0
-380 -398 409 547 0
-380 -399 409 0
-381 -396 -409 -549 0
-381 -396 409 549 0
-381 -397 -409 -550 0
-381 -397 409 550 0
-381 -398 -409 -551 0
-381 -398 409 551 0
-381 -399 409 0
-382 -396 -409 -553 0
-382 -396 409 553 0
-382 -397 -409 -554 0
-382 -397 409 554 0
-382 -398 -409 -555 0
-382 -398 409 555 0
-382 -399 409 0
-383 -400 -410 -533 0
-383 -400 -410 -537 0
-383 -400 410 533 537 0
-383 -401 -410 -534 0
-383 -401 -410 -538 0
-383 -401 410 534 538 0
-383 -402 -410 -535 0
-383 -402 -410 -539 0
-383 -402 410 535 539 0
-383 -403 410 0
-384 -400 -410 -537 0
-384 -400 -410 -541 0
-384 -400 410 537 541 0
-384 -401 -410 -538 0
-384 -401 -410 -542 0
-384 -401 410 538 542 0
-384 -402 -410 -539 0
-384 -402 -410 -543 0
-384 -402 410 539 543 0
-384 -403 410 0
-385 -400 -410 -541 0
-385 -400 -410 -545 0
-385 -400 410 541 545 0
-385 -401 -410 -542 0
-385 -401 -410 -546 0
-385 -401 410 542 546 0
-385 -402 -410 -543 0
-385 -402 -410 -547 0
-385 -402 410 543 547 0
-385 -403 410 0
-386 -400 -410 -545 0
-386 -400 -410 -549 0
-386 -400 410 545 549 0
-386 -401 -410 -546 0
-386 -401 -410 -550 0
-386 -401 410 546 550 0
-386 -402 -410 -547 0
-386 -402 -410 -551 0
-386 -402 410 547 551 0
-386 -403 410 0
-387 -400 -410 -549 0
-387 -400 -410 -553 0
-387 -400 410 549 553 0
-387 -401 -410 -550 0
-387 -401 -410 -554 0
-387 -401 410 550 554 0
-387 -402 -410 -551 0
-387 -402 -410 -555 0
-387 -402 410 551 555 0
-387 -403 410 0
-388 -404 -411 -533 0
-388 -404 -411 -537 0
-388 -404 -411 -541 0
-388 -404 411 533 537 541 0
-388 -405 -411 -534 0
-388 -405 -411 -538 0
-388 -405 -411 -542 0
-388 -405 411 534 538 542 0
-388 -406 -411 -535 0
-388 -406 -411 -539 0
-388 -406 -411 -543 0
-388 -406 411 535 539 543 0
-388 -407 411 0
-389 -404 -411 -537 0
-389 -404 -411 -541 0
-389 -404 -411 -545 0
-389 -404 411 537 541 545 0
-389 -405 -411 -538 0
-389 -405 -411 -542 0
-389 -405 -411 -546 0
-389 -405 411 538 542 546 0
-389 -406 -411 -539 0
-389 -406 -411 -543 0
-389 -406 -411 -547 0
-389 -406 411 539 543 547 0
-389 -407 411 0
-390 -404 -411 -541 0
-390 -404 -411 -545 0
-390 -404 -411 -549 0
-390 -404 411 541 545 549 0
-390 -405 -411 -542 0
-390 -405 -411 -546 0
-390 -405 -411 -550 0
-390 -405 411 542 546 550 0
-390 -406 -411 -543 0
-390 -406 -411 -547 0
-390 -406 -411 -551 0
-390 -406 411 543 547 551 0
-390 -407 411 0
-391 -404 -411 -545 0
-391 -404 -411 -549 0
-391 -404 -411 -553 0
-391 -404 411 545 549 553 0
-391 -405 -411 -546 0
-391 -405 -411 -550 0
-391 -405 -411 -554 0
-391 -405 411 546 550 554 0
-391 -406 -411 -547 0
-391 -406 -411 -551 0
-391 -406 -411 -555 0
-391 -406 411 547 551 555 0
-391 -407 411 0
556 557 558 559 560 561 0
-556 -557 0
-556 -558 0
-556 -559 0
-556 -560 0
-556 -561 0
-557 -558 0
-557 -559 0
-557 -560 0
-557 -561 0
-558 -559 0
-558 -560 0
-558 -561 0
-559 -560 0
-559 -561 0
-560 -561 0
577 578 579 580 0
-577 -578 0
-577 -579 0
-577 -580 0
-578 -579 0
-578 -580 0
-579 -580 0
562 563 564 565 566 567 0
-562 -563 0
-562 -564 0
-562 -565 0
-562 -566 0
-562 -567 0
-563 -564 0
-563 -565 0
-563 -566 0
-563 -567 0
-564 -565 0
-564 -566 0
-564 -567 0
-565 -566 0
-565 -567 0
-566 -567 0
581 582 583 584 0
-581 -582 0
-581 -583 0
-581 -584 0
-582 -583 0
-582 -584 0
-583 -584 0
568 569 570 571 572 0
-568 -569 0
-568 -570 0
-568 -571 0
-568 -572 0
-569 -570 0
-569 -571 0
-569 -572 0
-570 -571 0
-570 -572 0
-571 -572 0
585 586 587 588 0
-585 -586 0
-585 -587 0
-585 -588 0
-586 -587 0
-586 -588 0
-587 -588 0
573 574 575 576 0
-573 -574 0
-573 -575 0
-573 -576 0
-574 -575 0
-574 -576 0
-575 -576 0
589 590 591 592 0
-589 -590 0
-589 -591 0
-589 -592 0
-590 -591 0
-590 -592 0
-591 -592 0
-597 556 0
-556 597 0
-621 597 0
-621 577 0
-597 -577 621 0
-622 597 0
-622 578 0
-597 -578 622 0
-623 597 0
-623 579 0
-597 -579 623 0
-624 597 0
-624 580 0
-597 -580 624 0
-598 557 0
-557 598 0
-625 598 0
-625 577 0
-598 -577 625 0
-626 598 0
-626 578 0
-598 -578 626 0
-627 598 0
-627 579 0
-598 -579 627 0
-628 598 0
-628 580 0
-598 -580 628 0
-599 558 0
-558 599 0
-629 599 0
-629 577 0
-599 -577 629 0
-630 599 0
-630 578 0
-599 -578 630 0
-631 599 0
-631 579 0
-599 -579 631 0
-632 599 0
-632 580 0
-599 -580 632 0
-600 559 0
-559 600 0
-633 600 0
-633 577 0
-600 -577 633 0
-634 600 0
-634 578 0
-600 -578 634 0
-635 600 0
-635 579 0
-600 -579 635 0
-636 600 0
-636 580 0
-600 -580 636 0
-601 560 0
-560 601 0
-637 601 0
-637 577 0
-601 -577 637 0
-638 601 0
-638 578 0
-601 -578 638 0
-639 601 0
-639 579 0
-601 -579 639 0
-640 601 0
-640 580 0
-601 -580 640 0
-602 561 0
-561 602 0
-641 602 0
-641 577 0
-602 -577 641 0
-642 602 0
-642 578 0
-602 -578 642 0
-643 602 0
-643 579 0
-602 -579 643 0
-644 602 0
-644 580 0
-602 -580 644 0
-603 562 0
-562 603 0
-645 603 0
-645 581 0
-603 -581 645 0
-646 603 0
-646 582 0
-603 -582 646 0
-647 603 0
-647 583 0
-603 -583 647 0
-648 603 0
-648 584 0
-603 -584 648 0
-604 563 0
-563 604 0
-649 604 0
-649 581 0
-604 -581 649 0
-650 604 0
-650 582 0
-604 -582 650 0
-651 604 0
-651 583 0
-604 -583 651 0
-652 604 0
-652 584 0
-604 -584 652 0
-605 564 0
-564 605 0
-653 605 0
-653 581 0
-605 -581 653 0
-654 605 0
-654 582 0
-605 -582 654 0
-655 605 0
-655 583 0
-605 -583 655 0
-656 605 0
-656 584 0
-605 -584 656 0
-606 565 0
-565 606 0
-657 606 0
-657 581 0
-606 -581 657 0
-658 606 0
-658 582 0
-606 -582 658 0
-659 606 0
-659 583 0
-606 -583 659 0
-660 606 0
-660 584 0
-606 -584 660 0
-607 566 0
-566 607 0
-661 607 0
-661 581 0
-607 -581 661 0
-662 607 0
-662 582 0
-607 -582 662 0
-663 607 0
-663 583 0
-607 -583 663 0
-664 607 0
-664 584 0
-607 -584 664 0
-608 567 0
-567 608 0
-665 608 0
-665 581 0
-608 -581 665 0
-666 608 0
-666 582 0
-608 -582 666 0
-667 608 0
-667 583 0
-608 -583 667 0
-668 608 0
-668 584 0
-608 -584 668 0
-609 568 0
-568 609 0
-669 609 0
-669 585 0
-609 -585 669 0
-670 609 0
-670 586 0
-609 -586 670 0
-671 609 0
-671 587 0
-609 -587 671 0
-672 609 0
-672 588 0
-609 -588 672 0
-610 568 569 0
-568 610 0
-569 610 0
-673 610 0
-673 585 0
-610 -585 673 0
-674 610 0
-674 586 0
-610 -586 674 0
-675 610 0
-675 587 0
-610 -587 675 0
-676 610 0
-676 588 0
-610 -588 676 0
-611 569 570 0
-569 611 0
-570 611 0
-677 611 0
-677 585 0
-611 -585 677 0
-678 611 0
-678 586 0
-611 -586 678 0
-679 611 0
-679 587 0
-611 -587 679 0
-680 611 0
-680 588 0
-611 -588 680 0
-612 570 571 0
-570 612 0
-571 612 0
-681 612 0
-681 585 0
-612 -585 681 0
-682 612 0
-682 586 0
-612 -586 682 0
-683 612 0
-683 587 0
-612 -587 683 0
-684 612 0
-684 588 0
-612 -588 684 0
-613 571 572 0
-571 613 0
-572 613 0
-685 613 0
-685 585 0
-613 -585 685 0
-686 613 0
-686 586 0
-613 -586 686 0
-687 613 0
-687 587 0
-613 -587 687 0
-688 613 0
-688 588 0
-613 -588 688 0
-614 572 0
-572 614 0
-689 614 0
-689 585 0
-614 -585 689 0
-690 614 0
-690 586 0
-614 -586 690 0
-691 614 0
-691 587 0
-614 -587 691 0
-692 614 0
-692 588 0
-614 -588 692 0
-615 573 0
-573 615 0
-693 615 0
-693 589 0
-615 -589 693 0
-694 615 0
-694 590 0
-615 -590 694 0
-695 615 0
-695 591 0
-615 -591 695 0
-696 615 0
-696 592 0
-615 -592 696 0
-616 573 574 0
-573 616 0
-574 616 0
-697 616 0
-697 589 0
-616 -589 697 0
-698 616 0
-698 590 0
-616 -590 698 0
-699 616 0
-699 591 0
-616 -591 699 0
-700 616 0
-700 592 0
-616 -592 700 0
-617 573 574 575 0
-573 617 0
-574 617 0
-575 617 0
-701 617 0
-701 589 0
-617 -589 701 0
-702 617 0
-702 590 0
-617 -590 702 0
-703 617 0
-703 591 0
-617 -591 703 0
-704 617 0
-704 592 0
-617 -592 704 0
-618 574 575 576 0
-574 618 0
-575 618 0
-576 618 0
-705 618 0
-705 589 0
-618 -589 705 0
-706 618 0
-706 590 0
-618 -590 706 0
-707 618 0
-707 591 0
-618 -591 707 0
-708 618 0
-708 592 0
-618 -592 708 0
-619 575 576 0
-575 619 0
-576 619 0
-709 619 0
-709 589 0
-619 -589 709 0
-710 619 0
-710 590 0
-619 -590 710 0
-711 619 0
-711 591 0
-619 -591 711 0
-712 619 0
-712 592 0
-619 -592 712 0
-620 576 0
-576 620 0
-713 620 0
-713 589 0
-620 -589 713 0
-714 620 0
-714 590 0
-620 -590 714 0
-715 620 0
-715 591 0
-620 -591 715 0
-716 620 0
-716 592 0
-620 -592 716 0
-717 621 645 669 693 0
-621 717 0
-645 717 0
-669 717 0
-693 717 0
-718 622 646 670 694 0
-622 718 0
-646 718 0
-670 718 0
-694 718 0
-719 623 647 671 695 0
-623 719 0
-647 719 0
-671 719 0
-695 719 0
-720 624 648 672 696 0
-624 720 0
-648 720 0
-672 720 0
-696 720 0
-721 625 649 673 697 0
-625 721 0
-649 721 0
-673 721 0
-697 721 0
-722 626 650 674 698 0
-626 722 0
-650 722 0
-674 722 0
-698 722 0
-723 627 651 675 699 0
-627 723 0
-651 723 0
-675 723 0
-699 723 0
-724 628 652 676 700 0
-628 724 0
-652 724 0
-676 724 0
-700 724 0
-725 629 653 677 701 0
-629 725 0
-653 725 0
-677 725 0
-701 725 0
-726 630 654 678 702 0
-630 726 0
-654 726 0
-678 726 0
-702 726 0
-727 631 655 679 703 0
-631 727 0
-655 727 0
-679 727 0
-703 727 0
-728 632 656 680 704 0
-632 728 0
-656 728 0
-680 728 0
-704 728 0
-729 633 657 681 705 0
-633 729 0
-657 729 0
-681 729 0
-705 729 0
-730 634 658 682 706 0
-634 730 0
-658 730 0
-682 730 0
-706 730 0
-731 635 659 683 707 0
-635 731 0
-659 731 0
-683 731 0
-707 731 0
-732 636 660 684 708 0
-636 732 0
-660 732 0
-684 732 0
-708 732 0
-733 637 661 685 709 0
-637 733 0
-661 733 0
-685 733 0
-709 733 0
-734 638 662 686 710 0
-638 734 0
-662 734 0
-686 734 0
-710 734 0
-735 639 663 687 711 0
-639 735 0
-663 735 0
-687 735 0
-711 735 0
-736 640 664 688 712 0
-640 736 0
-664 736 0
-688 736 0
-712 736 0
-737 641 665 689 713 0
-641 737 0
-665 737 0
-689 737 0
-713 737 0
-738 642 666 690 714 0
-642 738 0
-666 738 0
-690 738 0
-714 738 0
-739 643 667 691 715 0
-643 739 0
-667 739 0
-691 739 0
-715 739 0
-740 644 668 692 716 0
-644 740 0
-668 740 0
-692 740 0
-716 740 0
-621 -645 0
-621 -669 0
-621 -693 0
-645 -669 0
-645 -693 0
-669 -693 0
-622 -646 0
-622 -670 0
-622 -694 0
-646 -670 0
-646 -694 0
-670 -694 0
-623 -647 0
-623 -671 0
-623 -695 0
-647 -671 0
-647 -695 0
-671 -695 0
-624 -648 0
-624 -672 0
-624 -696 0
-648 -672 0
-648 -696 0
-672 -696 0
-625 -649 0
-625 -673 0
-625 -697 0
-649 -673 0
-649 -697 0
-673 -697 0
-626 -650 0
-626 -674 0
-626 -698 0
-650 -674 0
-650 -698 0
-674 -698 0
-627 -651 0
-627 -675 0
-627 -699 0
-651 -675 0
-651 -699 0
-675 -699 0
-628 -652 0
-628 -676 0
-628 -700 0
-652 -676 0
-652 -700 0
-676 -700 0
-629 -653 0
-629 -677 0
-629 -701 0
-653 -677 0
-653 -701 0
-677 -701 0
-630 -654 0
-630 -678 0
-630 -702 0
-654 -678 0
-654 -702 0
-678 -702 0
-631 -655 0
-631 -679 0
-631 -703 0
-655 -679 0
-655 -703 0
-679 -703 0
-632 -656 0
-632 -680 0
-632 -704 0
-656 -680 0
-656 -704 0
-680 -704 0
-633 -657 0
-633 -681 0
-633 -705 0
-657 -681 0
-657 -705 0
-681 -705 0
-634 -658 0
-634 -682 0
-634 -706 0
-658 -682 0
-658 -706 0
-682 -706 0
-635 -659 0
-635 -683 0
-635 -707 0
-659 -683 0
-659 -707 0
-683 -707 0
-636 -660 0
-636 -684 0
-636 -708 0
-660 -684 0
-660 -708 0
-684 -708 0
-637 -661 0
-637 -685 0
-637 -709 0
-661 -685 0
-661 -709 0
-685 -709 0
-638 -662 0
-638 -686 0
-638 -710 0
-662 -686 0
-662 -710 0
-686 -710 0
-639 -663 0
-639 -687 0
-639 -711 0
-663 -687 0
-663 -711 0
-687 -711 0
-640 -664 0
-640 -688 0
-640 -712 0
-664 -688 0
-664 -712 0
-688 -712 0
-641 -665 0
-641 -689 0
-641 -713 0
-665 -689 0
-665 -713 0
-689 -713 0
-642 -666 0
-642 -690 0
-642 -714 0
-666 -690 0
-666 -714 0
-690 -714 0
-643 -667 0
-643 -691 0
-643 -715 0
-667 -691 0
-667 -715 0
-691 -715 0
-644 -668 0
-644 -692 0
-644 -716 0
-668 -692 0
-668 -716 0
-692 -716 0
-556 -578 717 0
-556 -579 718 0
-556 -580 719 0
-557 -578 721 0
-557 -579 722 0
-557 -580 723 0
-558 -578 725 0
-558 -579 726 0
-558 -580 727 0
-559 -578 729 0
-559 -579 730 0
-559 -580 731 0
-560 -578 733 0
-560 -579 734 0
-560 -580 735 0
-561 -578 737 0
-561 -579 738 0
-561 -580 739 0
-562 -582 717 0
-562 -583 718 0
-562 -584 719 0
-563 -582 721 0
-563 -583 722 0
-563 -584 723 0
-564 -582 725 0
-564 -583 726 0
-564 -584 727 0
-565 -582 729 0
-565 -583 730 0
-565 -584 731 0
-566 -582 733 0
-566 -583 734 0
-566 -584 735 0
-567 -582 737 0
-567 -583 738 0
-567 -584 739 0
-568 -586 717 721 0
-568 -587 718 722 0
-568 -588 719 723 0
-569 -586 721 725 0
-569 -587 722 726 0
-569 -588 723 727 0
-570 -586 725 729 0
-570 -587 726 730 0
-570 -588 727 731 0
-571 -586 729 733 0
-571 -587 730 734 0
-571 -588 731 735 0
-572 -586 733 737 0
-572 -587 734 738 0
-572 -588 735 739 0
-573 -590 717 721 0
-573 -590 717 725 0
-573 -590 721 725 0
-573 -591 718 722 0
-573 -591 718 726 0
-573 -591 722 726 0
-573 -592 719 723 0
-573 -592 719 727 0
-573 -592 723 727 0
-574 -590 721 725 0
-574 -590 721 729 0
-574 -590 725 729 0
-574 -591 722 726 0
-574 -591 722 730 0
-574 -591 726 730 0
-574 -592 723 727 0
-574 -592 723 731 0
-574 -592 727 731 0
-575 -590 725 729 0
-575 -590 725 733 0
-575 -590 729 733 0
-575 -591 726 730 0
-575 -591 726 734 0
-575 -591 730 734 0
-575 -592 727 731 0
-575 -592 727 735 0
-575 -592 731 735 0
-576 -590 729 733 0
-576 -590 729 737 0
-576 -590 733 737 0
-576 -591 730 734 0
-576 -591 730 738 0
-576 -591 734 738 0
-576 -592 731 735 0
-576 -592 731 739 0
-576 -592 735 739 0
-556 -577 -593 -718 0
-556 -577 593 718 0
-556 -578 -593 -719 0
-556 -578 593 719 0
-556 -579 -593 -720 0
-556 -579 593 720 0
-556 -580 593 0
-557 -577 -593 -722 0
-557 -577 593 722 0
-557 -578 -593 -723 0
-557 -578 593 723 0
-557 -579 -593 -724 0
-557 -579 593 724 0
-557 -580 593 0
-558 -577 -593 -726 0
-558 -577 593 726 0
-558 -578 -593 -727 0
-558 -578 593 727 0
-558 -579 -593 -728 0
-558 -579 593 728 0
-558 -580 593 0
-559 -577 -593 -730 0
-559 -577 593 730 0
-559 -578 -593 -731 0
-559 -578 593 731 0
-559 -579 -593 -732 0
-559 -579 593 732 0
-559 -580 593 0
-560 -577 -593 -734 0
-560 -577 593 734 0
-560 -578 -593 -735 0
-560 -578 593 735 0
-560 -579 -593 -736 0
-560 -579 593 736 0
-560 -580 593 0
-561 -577 -593 -738 0
-561 -577 593 738 0
-561 -578 -593 -739 0
-561 -578 593 739 0
-561 -579 -593 -740 0
-561 -579 593 740 0
-561 -580 593 0
-562 -581 -594 -718 0
-562 -581 594 718 0
-562 -582 -594 -719 0
-562 -582 594 719 0
-562 -583 -594 -720 0
-562 -583 594 720 0
-562 -584 594 0
-563 -581 -594 -722 0
-563 -581 594 722 0
-563 -582 -594 -723 0
-563 -582 594 723 0
-563 -583 -594 -724 0
-563 -583 594 724 0
-563 -584 594 0
-564 -581 -594 -726 0
-564 -581 594 726 0
-564 -582 -594 -727 0
-564 -582 594 727 0
-564 -583 -594 -728 0
-564 -583 594 728 0
-564 -584 594 0
-565 -581 -594 -730 0
-565 -581 594 730 0
-565 -582 -594 -731 0
-565 -582 594 731 0
-565 -583 -594 -732 0
-565 -583 594 732 0
-565 -584 594 0
-566 -581 -594 -734 0
-566 -581 594 734 0
-566 -582 -594 -735 0
-566 -582 594 735 0
-566 -583 -594 -736 0
-566 -583 594 736 0
-566 -584 594 0
-567 -581 -594 -738 0
-567 -581 594 738 0
-567 -582 -594 -739 0
-567 -582 594 739 0
-567 -583 -594 -740 0
-567 -583 594 740 0
-567 -584 594 0
-568 -585 -595 -718 0
-568 -585 -595 -722 0
-568 -585 595 718 722 0
-568 -586 -595 -719 0
-568 -586 -595 -723 0
-568 -586 595 719 723 0
-568 -587 -595 -720 0
-568 -587 -595 -724 0
-568 -587 595 720 724 0
-568 -588 595 0
-569 -585 -595 -722 0
-569 -585 -595 -726 0
-569 -585 595 722 726 0
-569 -586 -595 -723 0
-569 -586 -595 -727 0
-569 -586 595 723 727 0
-569 -587 -595 -724 0
-569 -587 -595 -728 0
-569 -587 595 724 728 0
-569 -588 595 0
-570 -585 -595 -726 0
-570 -585 -595 -730 0
-570 -585 595 726 730 0
-570 -586 -595 -727 0
-570 -586 -595 -731 0
-570 -586 595 727 731 0
-570 -587 -595 -728 0
-570 -587 -595 -732 0
-570 -587 595 728 732 0
-570 -588 595 0
-571 -585 -595 -730 0
-571 -585 -595 -734 0
-571 -585 595 730 734 0
-571 -586 -595 -731 0
-571 -586 -595 -735 0
-571 -586 595 731 735 0
-571 -587 -595 -732 0
-571 -587 -595 -736 0
-571 -587 595 732 736 0
-571 -588 595 0
-572 -585 -595 -734 0
-572 -585 -595 -738 0
-572 -585 595 734 738 0
-572 -586 -595 -735 0
-572 -586 -595 -739 0
-572 -586 595 735 739 0
-572 -587 -595 -736 0
-572 -587 -595 -740 0
-572 -587 595 736 740 0
-572 -588 595 0
-573 -589 -596 -718 0
-573 -589 -596 -722 0
-573 -589 -596 -726 0
-573 -589 596 718 722 726 0
-573 -590 -596 -719 0
-573 -590 -596 -723 0
-573 -590 -596 -727 0
-573 -590 596 719 723 727 0
-573 -591 -596 -720 0
-573 -591 -596 -724 0
-573 -591 -596 -728 0
-573 -591 596 720 724 728 0
-573 -592 596 0
-574 -589 -596 -722 0
-574 -589 -596 -726 0
-574 -589 -596 -730 0
-574 -589 596 722 726 730 0
-574 -590 -596 -723 0
-574 -590 -596 -727 0
-574 -590 -596 -731 0
-574 -590 596 723 727 731 0
-574 -591 -596 -724 0
-574 -591 -596 -728 0
-574 -591 -596 -732 0
-574 -591 596 724 728 732 0
-574 -592 596 0
-575 -589 -596 -726 0
-575 -589 -596 -730 0
-575 -589 -596 -734 0
-575 -589 596 726 730 734 0
-575 -590 -596 -727 0
-575 -590 -596 -731 0
-575 -590 -596 -735 0
-575 -590 596 727 731 735 0
-575 -591 -596 -728 0
-575 -591 -596 -732 0
-575 -591 -596 -736 0
-575 -591 596 728 732 736 0
-575 -592 596 0
-576 -589 -596 -730 0
-576 -589 -596 -734 0
-576 -589 -596 -738 0
-576 -589 596 730 734 738 0
-576 -590 -596 -731 0
-576 -590 -596 -735 0
-576 -590 -596 -739 0
-576 -590 596 731 735 739 0
-576 -591 -596 -732 0
-576 -591 -596 -736 0
-576 -591 -596 -740 0
-576 -591 596 732 736 740 0
-576 -592 596 0
741 742 743 744 745 746 0
-741 -742 0
-741 -743 0
-741 -744 0
-741 -745 0
-741 -746 0
-742 -743 0
-742 -744 0
-742 -745 0
-742 -746 0
-743 -744 0
-743 -745 0
-743 -746 0
-744 -745 0
-744 -746 0
-745 -746 0
762 763 764 765 0
-762 -763 0
-762 -764 0
-762 -765 0
-763 -764 0
-763 -765 0
-764 -765 0
747 748 749 750 751 752 0
-747 -748 0
-747 -749 0
-747 -750 0
-747 -751 0
-747 -752 0
-748 -749 0
-748 -750 0
-748 -751 0
-748 -752 0
-749 -750 0
-749 -751 0
-749 -752 0
-750 -751 0
-750 -752 0
-751 -752 0
766 767 768 769 0
-766 -767 0
-766 -768 0
-766 -769 0
-767 -768 0
-767 -769 0
-768 -769 0
753 754 755 756 757 0
-753 -754 0
-753 -755 0
-753 -756 0
-753 -757 0
-754 -755 0
-754 -756 0
-754 -757 0
-755 -756 0
-755 -757 0
-756 -757 0
770 771 772 773 0
-770 -771 0
-770 -772 0
-770 -773 0
-771 -772 0
-771 -773 0
-772 -773 0
758 759 760 761 0
-758 -759 0
-758 -760 0
-758 -761 0
-759 -760 0
-759 -761 0
-760 -761 0
774 775 776 777 0
-774 -775 0
-774 -776 0
-774 -777 0
-775 -776 0
-775 -777 0
-776 -777 0
-782 741 0
-741 782 0
-806 782 0
-806 762 0
-782 -762 806 0
-807 782 0
-807 763 0
-782 -763 807 0
-808 782 0
-808 764 0
-782 -764 808 0
-809 782 0
-809 765 0
-782 -765 809 0
-783 742 0
-742 783 0
-810 783 0
-810 762 0
-783 -762 810 0
-811 783 0
-811 763 0
-783 -763 811 0
-812 783 0
-812 764 0
-783 -764 812 0
-813 783 0
-813 765 0
-783 -765 813 0
-784 743 0
-743 784 0
-814 784 0
-814 762 0
-784 -762 814 0
-815 784 0
-815 763 0
-784 -763 815 0
-816 784 0
-816 764 0
-784 -764 816 0
-817 784 0
-817 765 0
-784 -765 817 0
-785 744 0
-744 785 0
-818 785 0
-818 762 0
-785 -762 818 0
-819 785 0
-819 763 0
-785 -763 819 0
-820 785 0
-820 764 0
-785 -764 820 0
-821 785 0
-821 765 0
-785 -765 821 0
-786 745 0
-745 786 0
-822 786 0
-822 762 0
-786 -762 822 0
-823 786 0
-823 763 0
-786 -763 823 0
-824 786 0
-824 764 0
-786 -764 824 0
-825 786 0
-825 765 0
-786 -765 825 0
-787 746 0
-746 787 0
-826 787 0
-826 762 0
-787 -762 826 0
-827 787 0
-827 763 0
-787 -763 827 0
-828 787 0
-828 764 0
-787 -764 828 0
-829 787 0
-829 765 0
-787 -765 829 0
-788 747 0
-747 788 0
-830 788 0
-830 766 0
-788 -766 830 0
-831 788 0
-831 767 0
-788 -767 831 0
-832 788 0
-832 768 0
-788 -768 832 0
-833 788 0
-833 769 0
-788 -769 833 0
-789 748 0
-748 789 0
-834 789 0
-834 766 0
-789 -766 834 0
-835 789 0
-835 767 0
-789 -767 835 0
-836 789 0
-836 768 0
-789 -768 836 0
-837 789 0
-837 769 0
-789 -769 837 0
-790 749 0
-749 790 0
-838 790 0
-838 766 0
-790 -766 838 0
-839 790 0
-839 767 0
-790 -767 839 0
-840 790 0
-840 768 0
-790 -768 840 0
-841 790 0
-841 769 0
-790 -769 841 0
-791 750 0
-750 791 0
-842 791 0
-842 766 0
-791 -766 842 0
-843 791 0
-843 767 0
-791 -767 843 0
-844 791 0
-844 768 0
-791 -768 844 0
-845 791 0
-845 769 0
-791 -769 845 0
-792 751 0
-751 792 0
-846 792 0
-846 766 0
-792 -766 846 0
-847 792 0
-847 767 0
-792 -767 847 0
-848 792 0
-848 768 0
-792 -768 848 0
-849 792 0
-849 769 0
-792 -769 849 0
-793 752 0
-752 793 0
-850 793 0
-850 766 0
-793 -766 850 0
-851 793 0
-851 767 0
-793 -767 851 0
-852 793 0
-852 768 0
-793 -768 852 0
-853 793 0
-853 769 0
-793 -769 853 0
-794 753 0
-753 794 0
-854 794 0
-854 770 0
-794 -770 854 0
-855 794 0
-855 771 0
-794 -771 855 0
-856 794 0
-856 772 0
-794 -772 856 0
-857 794 0
-857 773 0
-794 -773 857 0
-795 753 754 0
-753 795 0
-754 795 0
-858 795 0
-858 770 0
-795 -770 858 0
-859 795 0
-859 771 0
-795 -771 859 0
-860 795 0
-860 772 0
-795 -772 860 0
-861 795 0
-861 773 0
-795 -773 861 0
-796 754 755 0
-754 796 0
-755 796 0
-862 796 0
-862 770 0
-796 -770 862 0
-863 796 0
-863 771 0
-796 -771 863 0
-864 796 0
-864 772 0
-796 -772 864 0
-865 796 0
-865 773 0
-796 -773 865 0
-797 755 756 0
-755 797 0
-756 797 0
-866 797 0
-866 770 0
-797 -770 866 0
-867 797 0
-867 771 0
-797 -771 867 0
-868 797 0
-868 772 0
-797 -772 868 0
-869 797 0
-869 773 0
-797 -773 869 0
-798 756 757 0
-756 798 0
-757 798 0
-870 798 0
-870 770 0
-798 -770 870 0
-871 798 0
-871 771 0
-798 -771 871 0
-872 798 0
-872 772 0
-798 -772 872 0
-873 798 0
-873 773 0
-798 -773 873 0
-799 757 0
-757 799 0
-874 799 0
-874 770 0
-799 -770 874 0
-875 799 0
-875 771 0
-799 -771 875 0
-876 799 0
-876 772 0
-799 -772 876 0
-877 799 0
-877 773 0
-799 -773 877 0
-800 758 0
-758 800 0
-878 800 0
-878 774 0
-800 -774 878 0
-879 800 0
-879 775 0
-800 -775 879 0
-880 800 0
-880 776 0
-800 -776 880 0
-881 800 0
-881 777 0
-800 -777 881 0
-801 758 759 0
-758 801 0
-759 801 0
-882 801 0
-882 774 0
-801 -774 882 0
-883 801 0
-883 775 0
-801 -775 883 0
-884 801 0
-884 776 0
-801 -776 884 0
-885 801 0
-885 777 0
-801 -777 885 0
-802 758 759 760 0
-758 802 0
-759 802 0
-760 802 0
-886 802 0
-886 774 0
-802 -774 886 0
-887 802 0
-887 775 0
-802 -775 887 0
-888 802 0
-888 776 0
-802 -776 888 0
-889 802 0
-889 777 0
-802 -777 889 0
-803 759 760 761 0
-759 803 0
-760 803 0
-761 803 0
-890 803 0
-890 774 0
-803 -774 890 0
-891 803 0
-891 775 0
-803 -775 891 0
-892 803 0
-892 776 0
-803 -776 892 0
-893 803 0
-893 777 0
-803 -777 893 0
-804 760 761 0
-760 804 0
-761 804 0
-894 804 0
-894 774 0
-804 -774 894 0
-895 804 0
-895 775 0
-804 -775 895 0
-896 804 0
-896 776 0
-804 -776 896 0
-897 804 0
-897 777 0
-804 -777 897 0
-805 761 0
-761 805 0
-898 805 0
-898 774 0
-805 -774 898 0
-899 805 0
-899 775 0
-805 -775 899 0
-900 805 0
-900 776 0
-805 -776 900 0
-901 805 0
-901 777 0
-805 -777 901 0
-902 806 830 854 878 0
-806 902 0
-830 902 0
-854 902 0
-878 902 0
-903 807 831 855 879 0
-807 903 0
-831 903 0
-855 903 0
-879 903 0
-904 808 832 856 880 0
-808 904 0
-832 904 0
-856 904 0
-880 904 0
-905 809 833 857 881 0
-809 905 0
-833 905 0
-857 905 0
-881 905 0
-906 810 834 858 882 0
-810 906 0
-834 906 0
-858 906 0
-882 906 0
-907 811 835 859 883 0
-811 907 0
-835 907 0
-859 907 0
-883 907 0
-908 812 836 860 884 0
-812 908 0
-836 908 0
-860 908 0
-884 908 0
-909 813 837 861 885 0
-813 909 0
-837 909 0
-861 909 0
-885 909 0
-910 814 838 862 886 0
-814 910 0
-838 910 0
-862 910 0
-886 910 0
-911 815 839 863 887 0
-815 911 0
-839 911 0
-863 911 0
-887 911 0
-912 816 840 864 888 0
-816 912 0
-840 912 0
-864 912 0
-888 912 0
-913 817 841 865 889 0
-817 913 0
-841 913 0
-865 913 0
-889 913 0
-914 818 842 866 890 0
-818 914 0
-842 914 0
-866 914 0
-890 914 0
-915 819 843 867 891 0
-819 915 0
-843 915 0
-867 915 0
-891 915 0
-916 820 844 868 892 0
-820 916 0
-844 916 0
-868 916 0
-892 916 0
-917 821 845 869 893 0
-821 917 0
-845 917 0
-869 917 0
-893 917 0
-918 822 846 870 894 0
-822 918 0
-846 918 0
-870 918 0
-894 918 0
-919 823 847 871 895 0
-823 919 0
-847 919 0
-871 919 0
-895 919 0
-920 824 848 872 896 0
-824 920 0
-848 920 0
-872 920 0
-896 920 0
-921 825 849 873 897 0
-825 921 0
-849 921 0
-873 921 0
-897 921 0
-922 826 850 874 898 0
-826 922 0
-850 922 0
-874 922 0
-898 922 0
-923 827 851 875 899 0
-827 923 0
-851 923 0
-875 923 0
-899 923 0
-924 828 852 876 900 0
-828 924 0
-852 924 0
-876 924 0
-900 924 0
-925 829 853 877 901 0
-829 925 0
-853 925 0
-877 925 0
-901 925 0
-806 -830 0
-806 -854 0
-806 -878 0
-830 -854 0
-830 -878 0
-854 -878 0
-807 -831 0
-807 -855 0
-807 -879 0
-831 -855 0
-831 -879 0
-855 -879 0
-808 -832 0
-808 -856 0
-808 -880 0
-832 -856 0
-832 -880 0
-856 -880 0
-809 -833 0
-809 -857 0
-809 -881 0
-833 -857 0
-833 -881 0
-857 -881 0
-810 -834 0
-810 -858 0
-810 -882 0
-834 -858 0
-834 -882 0
-858 -882 0
-811 -835 0
-811 -859 0
-811 -883 0
-835 -859 0
-835 -883 0
-859 -883 0
-812 -836 0
-812 -860 0
-812 -884 0
-836 -860 0
-836 -884 0
-860 -884 0
-813 -837 0
-813 -861 0
-813 -885 0
-837 -861 0
-837 -885 0
-861 -885 0
-814 -838 0
-814 -862 0
-814 -886 0
-838 -862 0
-838 -886 0
-862 -886 0
-815 -839 0
-815 -863 0
-815 -887 0
-839 -863 0
-839 -887 0
-863 -887 0
-816 -840 0
-816 -864 0
-816 -888 0
-840 -864 0
-840 -888 0
-864 -888 0
-817 -841 0
-817 -865 0
-817 -889 0
-841 -865 0
-841 -889 0
-865 -889 0
-818 -842 0
-818 -866 0
-818 -890 0
-842 -866 0
-842 -890 0
-866 -890 0
-819 -843 0
-819 -867 0
-819 -891 0
-843 -867 0
-843 -891 0
-867 -891 0
-820 -844 0
-820 -868 0
-820 -892 0
-844 -868 0
-844 -892 0
-868 -892 0
-821 -845 0
-821 -869 0
-821 -893 0
-845 -869 0
-845 -893 0
-869 -893 0
-822 -846 0
-822 -870 0
-822 -894 0
-846 -870 0
-846 -894 0
-870 -894 0
-823 -847 0
-823 -871 0
-823 -895 0
-847 -871 0
-847 -895 0
-871 -895 0
-824 -848 0
-824 -872 0
-824 -896 0
-848 -872 0
-848 -896 0
-872 -896 0
-825 -849 0
-825 -873 0
-825 -897 0
-849 -873 0
-849 -897 0
-873 -897 0
-826 -850 0
-826 -874 0
-826 -898 0
-850 -874 0
-850 -898 0
-874 -898 0
-827 -851 0
-827 -875 0
-827 -899 0
-851 -875 0
-851 -899 0
-875 -899 0
-828 -852 0
-828 -876 0
-828 -900 0
-852 -876 0
-852 -900 0
-876 -900 0
-829 -853 0
-829 -877 0
-829 -901 0
-853 -877 0
-853 -901 0
-877 -901 0
-741 -763 902 0
-741 -764 903 0
-741 -765 904 0
-742 -763 906 0
-742 -764 907 0
-742 -765 908 0
-743 -763 910 0
-743 -764 911 0
-743 -765 912 0
-744 -763 914 0
-744 -764 915 0
-744 -765 916 0
-745 -763 918 0
-745 -764 919 0
-745 -765 920 0
-746 -763 922 0
-746 -764 923 0
-746 -765 924 0
-747 -767 902 0
-747 -768 903 0
-747 -769 904 0
-748 -767 906 0
-748 -768 907 0
-748 -769 908 0
-749 -767 910 0
-749 -768 911 0
-749 -769 912 0
-750 -767 914 0
-750 -768 915 0
-750 -769 916 0
-751 -767 918 0
-751 -768 919 0
-751 -769 920 0
-752 -767 922 0
-752 -768 923 0
-752 -769 924 0
-753 -771 902 906 0
-753 -772 903 907 0
-753 -773 904 908 0
-754 -771 906 910 0
-754 -772 907 911 0
-754 -773 908 912 0
-755 -771 910 914 0
-755 -772 911 915 0
-755 -773 912 916 0
-756 -771 914 918 0
-756 -772 915 919 0
-756 -773 916 920 0
-757 -771 918 922 0
-757 -772 919 923 0
-757 -773 920 924 0
-758 -775 902 906 0
-758 -775 902 910 0
-758 -775 906 910 0
-758 -776 903 907 0
-758 -776 903 911 0
-758 -776 907 911 0
-758 -777 904 908 0
-758 -777 904 912 0
-758 -777 908 912 0
-759 -775 906 910 0
-759 -775 906 914 0
-759 -775 910 914 0
-759 -776 907 911 0
-759 -776 907 915 0
-759 -776 911 915 0
-759 -777 908 912 0
-759 -777 908 916 0
-759 -777 912 916 0
-760 -775 910 914 0
-760 -775 910 918 0
-760 -775 914 918 0
-760 -776 911 915 0
-760 -776 911 919 0
-760 -776 915 919 0
-760 -777 912 916 0
-760 -777 912 920 0
-760 -777 916 920 0
-761 -775 914 918 0
-761 -775 914 922 0
-761 -775 918 922 0
-761 -776 915 919 0
-761 -776 915 923 0
-761 -776 919 923 0
-761 -777 916 920 0
-761 -777 916 924 0
-761 -777 920 924 0
-741 -762 -778 -903 0
-741 -762 778 903 0
-741 -763 -778 -904 0
-741 -763 778 904 0
-741 -764 -778 -905 0
-741 -764 778 905 0
-741 -765 778 0
-742 -762 -778 -907 0
-742 -762 778 907 0
-742 -763 -778 -908 0
-742 -763 778 908 0
-742 -764 -778 -909 0
-742 -764 778 909 0
-742 -765 778 0
-743 -762 -778 -911 0
-743 -762 778 911 0
-743 -763 -778 -912 0
-743 -763 778 912 0
-743 -764 -778 -913 0
-743 -764 778 913 0
-743 -765 778 0
-744 -762 -778 -915 0
-744 -762 778 915 0
-744 -763 -778 -916 0
-744 -763 778 916 0
-744 -764 -778 -917 0
-744 -764 778 917 0
-744 -765 778 0
-745 -762 -778 -919 0
-745 -762 778 919 0
-745 -763 -778 -920 0
-745 -763 778 920 0
-745 -764 -778 -921 0
-745 -764 778 921 0
-745 -765 778 0
-746 -762 -778 -923 0
-746 -762 778 923 0
-746 -763 -778 -924 0
-746 -763 778 924 0
-746 -764 -778 -925 0
-746 -764 778 925 0
-746 -765 778 0
-747 -766 -779 -903 0
-747 -766 779 903 0
-747 -767 -779 -904 0
-747 -767 779 904 0
-747 -768 -779 -905 0
-747 -768 779 905 0
-747 -769 779 0
-748 -766 -779 -907 0
-748 -766 779 907 0
-748 -767 -779 -908 0
-748 -767 779 908 0
-748 -768 -779 -909 0
-748 -768 779 909 0
-748 -769 779 0
-749 -766 -779 -911 0
-749 -766 779 911 0
-749 -767 -779 -912 0
-749 -767 779 912 0
-749 -768 -779 -913 0
-749 -768 779 913 0
-749 -769 779 0
-750 -766 -779 -915 0
-750 -766 779 915 0
-750 -767 -779 -916 0
-750 -767 779 916 0
-750 -768 -779 -917 0
-750 -768 779 917 0
-750 -769 779 0
-751 -766 -779 -919 0
-751 -766 779 919 0
-751 -767 -779 -920 0
-751 -767 779 920 0
-751 -768 -779 -921 0
-751 -768 779 921 0
-751 -769 779 0
-752 -766 -779 -923 0
-752 -766 779 923 0
-752 -767 -779 -924 0
-752 -767 779 924 0
-752 -768 -779 -925 0
-752 -768 779 925 0
-752 -769 779 0
-753 -770 -780 -903 0
-753 -770 -780 -907 0
-753 -770 780 903 907 0
-753 -771 -780 -904 0
-753 -771 -780 -908 0
-753 -771 780 904 908 0
-753 -772 -780 -905 0
-753 -772 -780 -909 0
-753 -772 780 905 909 0
-753 -773 780 0
-754 -770 -780 -907 0
-754 -770 -780 -911 0
-754 -770 780 907 911 0
-754 -771 -780 -908 0
-754 -771 -780 -912 0
-754 -771 780 908 912 0
-754 -772 -780 -909 0
-754 -772 -780 -913 0
-754 -772 780 909 913 0
-754 -773 780 0
-755 -770 -780 -911 0
-755 -770 -780 -915 0
-755 -770 780 911 915 0
-755 -771 -780 -912 0
-755 -771 -780 -916 0
-755 -771 780 912 916 0
-755 -772 -780 -913 0
-755 -772 -780 -917 0
-755 -772 780 913 917 0
-755 -773 780 0
-756 -770 -780 -915 0
-756 -770 -780 -919 0
-756 -770 780 915 919 0
-756 -771 -780 -916 0
-756 -771 -780 -920 0
-756 -771 780 916 920 0
-756 -772 -780 -917 0
-756 -772 -780 -921 0
-756 -772 780 917 921 0
-756 -773 780 0
-757 -770 -780 -919 0
-757 -770 -780 -923 0
-757 -770 780 919 923 0
-757 -771 -780 -920 0
-757 -771 -780 -924 0
-757 -771 780 920 924 0
-757 -772 -780 -921 0
-757 -772 -780 -925 0
-757 -772 780 921 925 0
-757 -773 780 0
-758 -774 -781 -903 0
-758 -774 -781 -907 0
-758 -774 -781 -911 0
-758 -774 781 903 907 911 0
-758 -775 -781 -904 0
-758 -775 -781 -908 0
-758 -775 -781 -912 0
-758 -775 781 904 908 912 0
-758 -776 -781 -905 0
-758 -776 -781 -909 0
-758 -776 -781 -913 0
-758 -776 781 905 909 913 0
-758 -777 781 0
-759 -774 -781 -907 0
-759 -774 -781 -911 0
-759 -774 -781 -915 0
-759 -774 781 907 911 915 0
-759 -775 -781 -908 0
-759 -775 -781 -912 0
-759 -775 -781 -916 0
-759 -775 781 908 912 916 0
-759 -776 -781 -909 0
-759 -776 -781 -913 0
-759 -776 -781 -917 0
-759 -776 781 909 913 917 0
-759 -777 781 0
-760 -774 -781 -911 0
-760 -774 -781 -915 0
-760 -774 -781 -919 0
-760 -774 781 911 915 919 0
-760 -775 -781 -912 0
-760 -775 -781 -916 0
-760 -775 -781 -920 0
-760 -775 781 912 916 920 0
-760 -776 -781 -913 0
-760 -776 -781 -917 0
-760 -776 -781 -921 0
-760 -776 781 913 917 921 0
-760 -777 781 0
-761 -774 -781 -915 0
-761 -774 -781 -919 0
-761 -774 -781 -923 0
-761 -774 781 915 919 923 0
-761 -775 -781 -916 0
-761 -775 -781 -920 0
-761 -775 -781 -924 0
-761 -775 781 916 920 924 0
-761 -776 -781 -917 0
-761 -776 -781 -921 0
-761 -776 -781 -925 0
-761 -776 781 917 921 925 0
-761 -777 781 0
-926 -927 0
-926 -928 0
-926 -929 0
-926 -930 0
-926 -931 0
-926 -932 0
-926 -933 0
-926 -934 0
-926 -935 0
-926 -936 0
-926 -937 0
-926 -938 0
-926 -939 0
-926 -940 0
-926 -941 0
-926 -942 0
-926 -943 0
-926 -944 0
-926 -945 0
-926 -946 0
-926 -947 0
-926 -948 0
-926 -949 0
-926 -950 0
-926 -951 0
-926 -952 0
-926 -953 0
-926 -954 0
-926 -955 0
-926 -956 0
-926 -957 0
-926 -958 0
-926 -959 0
-926 -960 0
-926 -961 0
-926 -962 0
-926 -963 0
-926 -964 0
-926 -965 0
-926 -966 0
-926 -967 0
-926 -968 0
-926 -969 0
-926 -970 0
-926 -971 0
-926 -972 0
-926 -973 0
-926 -974 0
-926 -975 0
-926 -976 0
-926 -977 0
-926 -978 0
-926 -979 0
-926 -980 0
-926 -981 0
-926 -982 0
-926 -983 0
-926 -984 0
-926 -985 0
-926 -986 0
-926 -987 0
-926 -988 0
-926 -989 0
-926 -990 0
-926 -991 0
-926 -992 0
-926 -993 0
-926 -994 0
-926 -995 0
-926 -996 0
-926 -997 0
-926 -998 0
-926 -999 0
-926 -1000 0
-926 -1001 0
-926 -1002 0
-926 -1003 0
-926 -1004 0
-926 -1005 0
-926 -1006 0
-926 -1007 0
-926 -1008 0
-926 -1009 0
-927 -928 0
-927 -929 0
-927 -930 0
-927 -931 0
-927 -932 0
-927 -933 0
-927 -934 0
-927 -935 0
-927 -936 0
-927 -937 0
-927 -938 0
-927 -939 0
-927 -940 0
-927 -941 0
-927 -942 0
-927 -943 0
-927 -944 0
-927 -945 0
-927 -946 0
-927 -947 0
-927 -948 0
-927 -949 0
-927 -950 0
-927 -951 0
-927 -952 0
-927 -953 0
-927 -954 0
-927 -955 0
-927 -956 0
-927 -957 0
-927 -958 0
-927 -959 0
-927 -960 0
-927 -961 0
-927 -962 0
-927 -963 0
-927 -964 0
-927 -965 0
-927 -966 0
-927 -967 0
-927 -968 0
-927 -969 0
-927 -970 0
-927 -971 0
-927 -972 0
-927 -973 0
-927 -974 0
-927 -975 0
-927 -976 0
-927 -977 0
-927 -978 0
-927 -979 0
-927 -980 0
-927 -981 0
-927 -982 0
-927 -983 0
-927 -984 0
-927 -985 0
-927 -986 0
-927 -987 0
-927 -988 0
-927 -989 0
-927 -990 0
-927 -991 0
-927 -992 0
-927 -993 0
-927 -994 0
-927 -995 0
-927 -996 0
-927 -997 0
-927 -998 0
-927 -999 0
-927 -1000 0
-927 -1001 0
-927 -1002 0
-927 -1003 0
-927 -1004 0
-927 -1005 0
-927 -1006 0
-927 -1007 0
-927 -1008 0
-927 -1009 0
-928 -929 0
-928 -930 0
-928 -931 0
-928 -932 0
-928 -933 0
-928 -934 0
-928 -935 0
-928 -936 0
-928 -937 0
-928 -938 0
-928 -939 0
-928 -940 0
-928 -941 0
-928 -942 0
-928 -943 0
-928 -944 0
-928 -945 0
-928 -946 0
-928 -947 0
-928 -948 0
-928 -949 0
-928 -950 0
-928 -951 0
-928 -952 0
-928 -953 0
-928 -954 0
-928 -955 0
-928 -956 0
-928 -957 0
-928 -958 0
-928 -959 0
-928 -960 0
-928 -961 0
-928 -962 0
-928 -963 0
-928 -964 0
-928 -965 0
-928 -966 0
-928 -967 0
-928 -968 0
-928 -969 0
-928 -970 0
-928 -971 0
-928 -972 0
-928 -973 0
-928 -974 0
-928 -975 0
-928 -976 0
-928 -977 0
-928 -978 0
-928 -979 0
-928 -980 0
-928 -981 0
-928 -982 0
-928 -983 0
-928 -984 0
-928 -985 0
-928 -986 0
-928 -987 0
-928 -988 0
-928 -989 0
-928 -990 0
-928 -991 0
-928 -992 0
-928 -993 0
-928 -994 0
-928 -995 0
-928 -996 0
-928 -997 0
-928 -998 0
-928 -999 0
-928 -1000 0
-928 -1001 0
-928 -1002 0
-928 -1003 0
-928 -1004 0
-928 -1005 0
-928 -1006 0
-928 -1007 0
-928 -1008 0
-928 -1009 0
-929 -930 0
-929 -931 0
-929 -932 0
-929 -933 0
-929 -934 0
-929 -935 0
-929 -936 0
-929 -937 0
-929 -938 0
-929 -939 0
-929 -940 0
-929 -941 0
-929 -942 0
-929 -943 0
-929 -944 0
-929 -945 0
-929 -946 0
-929 -947 0
-929 -948 0
-929 -949 0
-929 -950 0
-929 -951 0
-929 -952 0
-929 -953 0
-929 -954 0
-929 -955 0
-929 -956 0
-929 -957 0
-929 -958 0
-929 -959 0
-929 -960 0
-929 -961 0
-929 -962 0
-929 -963 0
-929 -964 0
-929 -965 0
-929 -966 0
-929 -967 0
-929 -968 0
-929 -969 0
-929 -970 0
-929 -971 0
-929 -972 0
-929 -973 0
-929 -974 0
-929 -975 0
-929 -976 0
-929 -977 0
-929 -978 0
-929 -979 0
-929 -980 0
-929 -981 0
-929 -982 0
-929 -983 0
-929 -984 0
-929 -985 0
-929 -986 0
-929 -987 0
-929 -988 0
-929 -989 0
-929 -990 0
-929 -991 0
-929 -992 0
-929 -993 0
-929 -994 0
-929 -995 0
-929 -996 0
-929 -997 0
-929 -998 0
-929 -999 0
-929 -1000 0
-929 -1001 0
-929 -1002 0
-929 -1003 0
-929 -1004 0
-929 -1005 0
-929 -1006 0
-929 -1007 0
-929 -1008 0
-929 -1009 0
-930 -931 0
-930 -932 0
-930 -933 0
-930 -934 0
-930 -935 0
-930 -936 0
-930 -937 0
-930 -938 0
-930 -939 0
-930 -940 0
-930 -941 0
-930 -942 0
-930 -943 0
-930 -944 0
-930 -945 0
-930 -946 0
-930 -947 0
-930 -948 0
-930 -949 0
-930 -950 0
-930 -951 0
-930 -952 0
-930 -953 0
-930 -954 0
-930 -955 0
-930 -956 0
-930 -957 0
-930 -958 0
-930 -959 0
-930 -960 0
-930 -961 0
-930 -962 0
-930 -963 0
-930 -964 0
-930 -965 0
-930 -966 0
-930 -967 0
-930 -968 0
-930 -969 0
-930 -970 0
-930 -971 0
-930 -972 0
-930 -973 0
-930 -974 0
-930 -975 0
-930 -976 0
-930 -977 0
-930 -978 0
-930 -979 0
-930 -980 0
-930 -981 0
-930 -982 0
-930 -983 0
-930 -984 0
-930 -985 0
-930 -986 0
-930 -987 0
-930 -988 0
-930 -989 0
-930 -990 0
-930 -991 0
-930 -992 0
-930 -993 0
-930 -994 0
-930 -995 0
-930 -996 0
-930 -997 0
-930 -998 0
-930 -999 0
-930 -1000 0
-930 -1001 0
-930 -1002 0
-930 -1003 0
-930 -1004 0
-930 -1005 0
-930 -1006 0
-930 -1007 0
-930 -1008 0
-930 -1009 0
-931 -932 0
-931 -933 0
-931 -934 0
-931 -935 0
-931 -936 0
-931 -937 0
-931 -938 0
-931 -939 0
-931 -940 0
-931 -941 0
-931 -942 0
-931 -943 0
-931 -944 0
-931 -945 0
-931 -946 0
-931 -947 0
-931 -948 0
-931 -949 0
-931 -950 0
-931 -951 0
-931 -952 0
-931 -953 0
-931 -954 0
-931 -955 0
-931 -956 0
-931 -957 0
-931 -958 0
-931 -959 0
-931 -960 0
-931 -961 0
-931 -962 0
-931 -963 0
-931 -964 0
-931 -965 0
-931 -966 0
-931 -967 0
-931 -968 0
-931 -969 0
-931 -970 0
-931 -971 0
-931 -972 0
-931 -973 0
-931 -974 0
-931 -975 0
-931 -976 0
-931 -977 0
-931 -978 0
-931 -979 0
-931 -980 0
-931 -981 0
-931 -982 0
-931 -983 0
-931 -984 0
-931 -985 0
-931 -986 0
-931 -987 0
-931 -988 0
-931 -989 0
-931 -990 0
-931 -991 0
-931 -992 0
-931 -993 0
-931 -994 0
-931 -995 0
-931 -996 0
-931 -997 0
-931 -998 0
-931 -999 0
-931 -1000 0
-931 -1001 0
-931 -1002 0
-931 -1003 0
-931 -1004 0
-931 -1005 0
-931 -1006 0
-931 -1007 0
-931 -1008 0
-931 -1009 0
-932 -933 0
-932 -934 0
-932 -935 0
-932 -936 0
-932 -937 0
-932 -938 0
-932 -939 0
-932 -940 0
-932 -941 0
-932 -942 0
-932 -943 0
-932 -944 0
-932 -945 0
-932 -946 0
-932 -947 0
-932 -948 0
-932 -949 0
-932 -950 0
-932 -951 0
-932 -952 0
-932 -953 0
-932 -954 0
-932 -955 0
-932 -956 0
-932 -957 0
-932 -958 0
-932 -959 0
-932 -960 0
-932 -961 0
-932 -962 0
-932 -963 0
-932 -964 0
-932 -965 0
-932 -966 0
-932 -967 0
-932 -968 0
-932 -969 0
-932 -970 0
-932 -971 0
-932 -972 0
-932 -973 0
-932 -974 0
-932 -975 0
-932 -976 0
-932 -977 0
-932 -978 0
-932 -979 0
-932 -980 0
-932 -981 0
-932 -982 0
-932 -983 0
-932 -984 0
-932 -985 0
-932 -986 0
-932 -987 0
-932 -988 0
-932 -989 0
-932 -990 0
-932 -991 0
-932 -992 0
-932 -993 0
-932 -994 0
-932 -995 0
-932 -996 0
-932 -997 0
-932 -998 0
-932 -999 0
-932 -1000 0
-932 -1001 0
-932 -1002 0
-932 -1003 0
-932 -1004 0
-932 -1005 0
-932 -1006 0
-932 -1007 0
-932 -1008 0
-932 -1009 0
-933 -934 0
-933 -935 0
-933 -936 0
-933 -937 0
-933 -938 0
-933 -939 0
-933 -940 0
-933 -941 0
-933 -942 0
-933 -943 0
-933 -944 0
-933 -945 0
-933 -946 0
-933 -947 0
-933 -948 0
-933 -949 0
-933 -950 0
-933 -951 0
-933 -952 0
-933 -953 0
-933 -954 0
-933 -955 0
-933 -956 0
-933 -957 0
-933 -958 0
-933 -959 0
-933 -960 0
-933 -961 0
-933 -962 0
-933 -963 0
-933 -964 0
-933 -965 0
-933 -966 0
-933 -967 0
-933 -968 0
-933 -969 0
-933 -970 0
-933 -971 0
-933 -972 0
-933 -973 0
-933 -974 0
-933 -975 0
-933 -976 0
-933 -977 0
-933 -978 0
-933 -979 0
-933 -980 0
-933 -981 0
-933 -982 0
-933 -983 0
-933 -984 0
-933 -985 0
-933 -986 0
-933 -987 0
-933 -988 0
-933 -989 0
-933 -990 0
-933 -991 0
-933 -992 0
-933 -993 0
-933 -994 0
-933 -995 0
-933 -996 0
-933 -997 0
-933 -998 0
-933 -999 0
-933 -1000 0
-933 -1001 0
-933 -1002 0
-933 -1003 0
-933 -1004 0
-933 -1005 0
-933 -1006 0
-933 -1007 0
-933 -1008 0
-933 -1009 0
-934 -935 0
-934 -936 0
-934 -937 0
-934 -938 0
-934 -939 0
-934 -940 0
-934 -941 0
-934 -942 0
-934 -943 0
-934 -944 0
-934 -945 0
-934 -946 0
-934 -947 0
-934 -948 0
-934 -949 0
-934 -950 0
-934 -951 0
-934 -952 0
-934 -953 0
-934 -954 0
-934 -955 0
-934 -956 0
-934 -957 0
-934 -958 0
-934 -959 0
-934 -960 0
-934 -961 0
-934 -962 0
-934 -963 0
-934 -964 0
-934 -965 0
-934 -966 0
-934 -967 0
-934 -968 0
-934 -969 0
-934 -970 0
-934 -971 0
-934 -972 0
-934 -973 0
-934 -974 0
-934 -975 0
-934 -976 0
-934 -977 0
-934 -978 0
-934 -979 0
-934 -980 0
-934 -981 0
-934 -982 0
-934 -983 0
-934 -984 0
-934 -985 0
-934 -986 0
-934 -987 0
-934 -988 0
-934 -989 0
-934 -990 0
-934 -991 0
-934 -992 0
-934 -993 0
-934 -994 0
-934 -995 0
-934 -996 0
-934 -997 0
-934 -998 0
-934 -999 0
-934 -1000 0
-934 -1001 0
-934 -1002 0
-934 -1003 0
-934 -1004 0
-934 -1005 0
-934 -1006 0
-934 -1007 0
-934 -1008 0
-934 -1009 0
-935 -936 0
-935 -937 0
-935 -938 0
-935 -939 0
-935 -940 0
-935 -941 0
-935 -942 0
-935 -943 0
-935 -944 0
-935 -945 0
-935 -946 0
-935 -947 0
-935 -948 0
-935 -949 0
-935 -950 0
-935 -951 0
-935 -952 0
-935 -953 0
-935 -954 0
-935 -955 0
-935 -956 0
-935 -957 0
-935 -958 0
-935 -959 0
-935 -960 0
-935 -961 0
-935 -962 0
-935 -963 0
-935 -964 0
-935 -965 0
-935 -966 0
-935 -967 0
-935 -968 0
-935 -969 0
-935 -970 0
-935 -971 0
-935 -972 0
-935 -973 0
-935 -974 0
-935 -975 0
-935 -976 0
-935 -977 0
-935 -978 0
-935 -979 0
-935 -980 0
-935 -981 0
-935 -982 0
-935 -983 0
-935 -984 0
-935 -985 0
-935 -986 0
-935 -987 0
-935 -988 0
-935 -989 0
-935 -990 0
-935 -991 0
-935 -992 0
-935 -993 0
-935 -994 0
-935 -995 0
-935 -996 0
-935 -997 0
-935 -998 0
-935 -999 0
-935 -1000 0
-935 -1001 0
-935 -1002 0
-935 -1003 0
-935 -1004 0
-935 -1005 0
-935 -1006 0
-935 -1007 0
-935 -1008 0
-935 -1009 0
-936 -937 0
-936 -938 0
-936 -939 0
-936 -940 0
-936 -941 0
-936 -942 0
-936 -943 0
-936 -944 0
-936 -945 0
-936 -946 0
-936 -947 0
-936 -948 0
-936 -949 0
-936 -950 0
-936 -951 0
-936 -952 0
-936 -953 0
-936 -954 0
-936 -955 0
-936 -956 0
-936 -957 0
-936 -958 0
-936 -959 0
-936 -960 0
-936 -961 0
-936 -962 0
-936 -963 0
-936 -964 0
-936 -965 0
-936 -966 0
-936 -967 0
-936 -968 0
-936 -969 0
-936 -970 0
-936 -971 0
-936 -972 0
-936 -973 0
-936 -974 0
-936 -975 0
-936 -976 0
-936 -977 0
-936 -978 0
-936 -979 0
-936 -980 0
-936 -981 0
-936 -982 0
-936 -983 0
-936 -984 0
-936 -985 0
-936 -986 0
-936 -987 0
-936 -988 0
-936 -989 0
-936 -990 0
-936 -991 0
-936 -992 0
-936 -993 0
-936 -994 0
-936 -995 0
-936 -996 0
-936 -997 0
-936 -998 0
-936 -999 0
-936 -1000 0
-936 -1001 0
-936 -1002 0
-936 -1003 0
-936 -1004 0
-936 -1005 0
-936 -1006 0
-936 -1007 0
-936 -1008 0
-936 -1009 0
-937 -938 0
-937 -939 0
-937 -940 0
-937 -941 0
-937 -942 0
-937 -943 0
-937 -944 0
-937 -945 0
-937 -946 0
-937 -947 0
-937 -948 0
-937 -949 0
-937 -950 0
-937 -951 0
-937 -952 0
-937 -953 0
-937 -954 0
-937 -955 0
-937 -956 0
-937 -957 0
-937 -958 0
-937 -959 0
-937 -960 0
-937 -961 0
-937 -962 0
-937 -963 0
-937 -964 0
-937 -965 0
-937 -966 0
-937 -967 0
-937 -968 0
-937 -969 0
-937 -970 0
-937 -971 0
-937 -972 0
-937 -973 0
-937 -974 0
-937 -975 0
-937 -976 0
-937 -977 0
-937 -978 0
-937 -979 0
-937 -980 0
-937 -981 0
-937 -982 0
-937 -983 0
-937 -984 0
-937 -985 0
-937 -986 0
-937 -987 0
-937 -988 0
-937 -989 0
-937 -990 0
-937 -991 0
-937 -992 0
-937 -993 0
-937 -994 0
-937 -995 0
-937 -996 0
-937 -997 0
-937 -998 0
-937 -999 0
-937 -1000 0
-937 -1001 0
-937 -1002 0
-937 -1003 0
-937 -1004 0
-937 -1005 0
-937 -1006 0
-937 -1007 0
-937 -1008 0
-937 -1009 0
-938 -939 0
-938 -940 0
-938 -941 0
-938 -942 0
-938 -943 0
-938 -944 0
-938 -945 0
-938 -946 0
-938 -947 0
-938 -948 0
-938 -949 0
-938 -950 0
-938 -951 0
-938 -952 0
-938 -953 0
-938 -954 0
-938 -955 0
-938 -956 0
-938 -957 0
-938 -958 0
-938 -959 0
-938 -960 0
-938 -961 0
-938 -962 0
-938 -963 0
-938 -964 0
-938 -965 0
-938 -966 0
-938 -967 0
-938 -968 0
-938 -969 0
-938 -970 0
-938 -971 0
-938 -972 0
-938 -973 0
-938 -974 0
-938 -975 0
-938 -976 0
-938 -977 0
-938 -978 0
-938 -979 0
-938 -980 0
-938 -981 0
-938 -982 0
-938 -983 0
-938 -984 0
-938 -985 0
-938 -986 0
-938 -987 0
-938 -988 0
-938 -989 0
-938 -990 0
-938 -991 0
-938 -992 0
-938 -993 0
-938 -994 0
-938 -995 0
-938 -996 0
-938 -997 0
-938 -998 0
-938 -999 0
-938 -1000 0
-938 -1001 0
-938 -1002 0
-938 -1003 0
-938 -1004 0
-938 -1005 0
-938 -1006 0
-938 -1007 0
-938 -1008 0
-938 -1009 0
-939 -940 0
-939 -941 0
-939 -942 0
-939 -943 0
-939 -944 0
-939 -945 0
-939 -946 0
-939 -947 0
-939 -948 0
-939 -949 0
-939 -950 0
-939 -951 0
-939 -952 0
-939 -953 0
-939 -954 0
-939 -955 0
-939 -956 0
-939 -957 0
-939 -958 0
-939 -959 0
-939 -960 0
-939 -961 0
-939 -962 0
-939 -963 0
-939 -964 0
-939 -965 0
-939 -966 0
-939 -967 0
-939 -968 0
-939 -969 0
-939 -970 0
-939 -971 0
-939 -972 0
-939 -973 0
-939 -974 0
-939 -975 0
-939 -976 0
-939 -977 0
-939 -978 0
-939 -979 0
-939 -980 0
-939 -981 0
-939 -982 0
-939 -983 0
-939 -984 0
-939 -985 0
-939 -986 0
-939 -987 0
-939 -988 0
-939 -989 0
-939 -990 0
-939 -991 0
-939 -992 0
-939 -993 0
-939 -994 0
-939 -995 0
-939 -996 0
-939 -997 0
-939 -998 0
-939 -999 0
-939 -1000 0
-939 -1001 0
-939 -1002 0
-939 -1003 0
-939 -1004 0
-939 -1005 0
-939 -1006 0
-939 -1007 0
-939 -1008 0
-939 -1009 0
-940 -941 0
-940 -942 0
-940 -943 0
-940 -944 0
-940 -945 0
-940 -946 0
-940 -947 0
-940 -948 0
-940 -949 0
-940 -950 0
-940 -951 0
-940 -952 0
-940 -953 0
-940 -954 0
-940 -955 0
-940 -956 0
-940 -957 0
-940 -958 0
-940 -959 0
-940 -960 0
-940 -961 0
-940 -962 0
-940 -963 0
-940 -964 0
-940 -965 0
-940 -966 0
-940 -967 0
-940 -968 0
-940 -969 0
-940 -970 0
-940 -971 0
-940 -972 0
-940 -973 0
-940 -974 0
-940 -975 0
-940 -976 0
-940 -977 0
-940 -978 0
-940 -979 0
-940 -980 0
-940 -981 0
-940 -982 0
-940 -983 0
-940 -984 0
-940 -985 0
-940 -986 0
-940 -987 0
-940 -988 0
-940 -989 0
-940 -990 0
-940 -991 0
-940 -992 0
-940 -993 0
-940 -994 0
-940 -995 0
-940 -996 0
-940 -997 0
-940 -998 0
-940 -999 0
-940 -1000 0
-940 -1001 0
-940 -1002 0
-940 -1003 0
-940 -1004 0
-940 -1005 0
-940 -1006 0
-940 -1007 0
-940 -1008 0
-940 -1009 0
-941 -942 0
-941 -943 0
-941 -944 0
-941 -945 0
-941 -946 0
-941 -947 0
-941 -948 0
-941 -949 0
-941 -950 0
-941 -951 0
-941 -952 0
-941 -953 0
-941 -954 0
-941 -955 0
-941 -956 0
-941 -957 0
-941 -958 0
-941 -959 0
-941 -960 0
-941 -961 0
-941 -962 0
-941 -963 0
-941 -964 0
-941 -965 0
-941 -966 0
-941 -967 0
-941 -968 0
-941 -969 0
-941 -970 0
-941 -971 0
-941 -972 0
-941 -973 0
-941 -974 0
-941 -975 0
-941 -976 0
-941 -977 0
-941 -978 0
-941 -979 0
-941 -980 0
-941 -981 0
-941 -982 0
-941 -983 0
-941 -984 0
-941 -985 0
-941 -986 0
-941 -987 0
-941 -988 0
-941 -989 0
-941 -990 0
-941 -991 0
-941 -992 0
-941 -993 0
-941 -994 0
-941 -995 0
-941 -996 0
-941 -997 0
-941 -998 0
-941 -999 0
-941 -1000 0
-941 -1001 0
-941 -1002 0
-941 -1003 0
-941 -1004 0
-941 -1005 0
-941 -1006 0
-941 -1007 0
-941 -1008 0
-941 -1009 0
-942 -943 0
-942 -944 0
-942 -945 0
-942 -946 0
-942 -947 0
-942 -948 0
-942 -949 0
-942 -950 0
-942 -951 0
-942 -952 0
-942 -953 0
-942 -954 0
-942 -955 0
-942 -956 0
-942 -957 0
-942 -958 0
-942 -959 0
-942 -960 0
-942 -961 0
-942 -962 0
-942 -963 0
-942 -964 0
-942 -965 0
-942 -966 0
-942 -967 0
-942 -968 0
-942 -969 0
-942 -970 0
-942 -971 0
-942 -972 0
-942 -973 0
-942 -974 0
-942 -975 0
-942 -976 0
-942 -977 0
-942 -978 0
-942 -979 0
-942 -980 0
-942 -981 0
-942 -982 0
-942 -983 0
-942 -984 0
-942 -985 0
-942 -986 0
-942 -987 0
-942 -988 0
-942 -989 0
-942 -990 0
-942 -991 0
-942 -992 0
-942 -993 0
-942 -994 0
-942 -995 0
-942 -996 0
-942 -997 0
-942 -998 0
-942 -999 0
-942 -1000 0
-942 -1001 0
-942 -1002 0
-942 -1003 0
-942 -1004 0
-942 -1005 0
-942 -1006 0
-942 -1007 0
-942 -1008 0
-942 -1009 0
-943 -944 0
-943 -945 0
-943 -946 0
-943 -947 0
-943 -948 0
-943 -949 0
-943 -950 0
-943 -951 0
-943 -952 0
-943 -953 0
-943 -954 0
-943 -955 0
-943 -956 0
-943 -957 0
-943 -958 0
-943 -959 0
-943 -960 0
-943 -961 0
-943 -962 0
-943 -963 0
-943 -964 0
-943 -965 0
-943 -966 0
-943 -967 0
-943 -968 0
-943 -969 0
-943 -970 0
-943 -971 0
-943 -972 0
-943 -973 0
-943 -974 0
-943 -975 0
-943 -976 0
-943 -977 0
-943 -978 0
-943 -979 0
-943 -980 0
-943 -981 0
-943 -982 0
-943 -983 0
-943 -984 0
-943 -985 0
-943 -986 0
-943 -987 0
-943 -988 0
-943 -989 0
-943 -990 0
-943 -991 0
-943 -992 0
-943 -993 0
-943 -994 0
-943 -995 0
-943 -996 0
-943 -997 0
-943 -998 0
-943 -999 0
-943 -1000 0
-943 -1001 0
-943 -1002 0
-943 -1003 0
-943 -1004 0
-943 -1005 0
-943 -1006 0
-943 -1007 0
-943 -1008 0
-943 -1009 0
-944 -945 0
-944 -946 0
-944 -947 0
-944 -948 0
-944 -949 0
-944 -950 0
-944 -951 0
-944 -952 0
-944 -953 0
-944 -954 0
-944 -955 0
-944 -956 0
-944 -957 0
-944 -958 0
-944 -959 0
-944 -960 0
-944 -961 0
-944 -962 0
-944 -963 0
-944 -964 0
-944 -965 0
-944 -966 0
-944 -967 0
-944 -968 0
-944 -969 0
-944 -970 0
-944 -971 0
-944 -972 0
-944 -973 0
-944 -974 0
-944 -975 0
-944 -976 0
-944 -977 0
-944 -978 0
-944 -979 0
-944 -980 0
-944 -981 0
-944 -982 0
-944 -983 0
-944 -984 0
-944 -985 0
-944 -986 0
-944 -987 0
-944 -988 0
-944 -989 0
-944 -990 0
-944 -991 0
-944 -992 0
-944 -993 0
-944 -994 0
-944 -995 0
-944 -996 0
-944 -997 0
-944 -998 0
-944 -999 0
-944 -1000 0
-944 -1001 0
-944 -1002 0
-944 -1003 0
-944 -1004 0
-944 -1005 0
-944 -1006 0
-944 -1007 0
-944 -1008 0
-944 -1009 0
-945 -946 0
-945 -947 0
-945 -948 0
-945 -949 0
-945 -950 0
-945 -951 0
-945 -952 0
-945 -953 0
-945 -954 0
-945 -955 0
-945 -956 0
-945 -957 0
-945 -958 0
-945 -959 0
-945 -960 0
-945 -961 0
-945 -962 0
-945 -963 0
-945 -964 0
-945 -965 0
-945 -966 0
-945 -967 0
-945 -968 0
-945 -969 0
-945 -970 0
-945 -971 0
-945 -972 0
-945 -973 0
-945 -974 0
-945 -975 0
-945 -976 0
-945 -977 0
-945 -978 0
-945 -979 0
-945 -980 0
-945 -981 0
-945 -982 0
-945 -983 0
-945 -984 0
-945 -985 0
-945 -986 0
-945 -987 0
-945 -988 0
-945 -989 0
-945 -990 0
-945 -991 0
-945 -992 0
-945 -993 0
-945 -994 0
-945 -995 0
-945 -996 0
-945 -997 0
-945 -998 0
-945 -999 0
-945 -1000 0
-945 -1001 0
-945 -1002 0
-945 -1003 0
-945 -1004 0
-945 -1005 0
-945 -1006 0
-945 -1007 0
-945 -1008 0
-945 -1009 0
-946 -947 0
-946 -948 0
-946 -949 0
-946 -950 0
-946 -951 0
-946 -952 0
-946 -953 0
-946 -954 0
-946 -955 0
-946 -956 0
-946 -957 0
-946 -958 0
-946 -959 0
-946 -960 0
-946 -961 0
-946 -962 0
-946 -963 0
-946 -964 0
-946 -965 0
-946 -966 0
-946 -967 0
-946 -968 0
-946 -969 0
-946 -970 0
-946 -971 0
-946 -972 0
-946 -973 0
-946 -974 0
-946 -975 0
-946 -976 0
-946 -977 0
-946 -978 0
-946 -979 0
-946 -980 0
-946 -981 0
-946 -982 0
-946 -983 0
-946 -984 0
-946 -985 0
-946 -986 0
-946 -987 0
-946 -988 0
-946 -989 0
-946 -990 0
-946 -991 0
-946 -992 0
-946 -993 0
-946 -994 0
-946 -995 0
-946 -996 0
-946 -997 0
-946 -998 0
-946 -999 0
-946 -1000 0
-946 -1001 0
-946 -1002 0
-946 -1003 0
-946 -1004 0
-946 -1005 0
-946 -1006 0
-946 -1007 0
-946 -1008 0
-946 -1009 0
-947 -948 0
-947 -949 0
-947 -950 0
-947 -951 0
-947 -952 0
-947 -953 0
-947 -954 0
-947 -955 0
-947 -956 0
-947 -957 0
-947 -958 0
-947 -959 0
-947 -960 0
-947 -961 0
-947 -962 0
-947 -963 0
-947 -964 0
-947 -965 0
-947 -966 0
-947 -967 0
-947 -968 0
-947 -969 0
-947 -970 0
-947 -971 0
-947 -972 0
-947 -973 0
-947 -974 0
-947 -975 0
-947 -976 0
-947 -977 0
-947 -978 0
-947 -979 0
-947 -980 0
-947 -981 0
-947 -982 0
-947 -983 0
-947 -984 0
-947 -985 0
-947 -986 0
-947 -987 0
-947 -988 0
-947 -989 0
-947 -990 0
-947 -991 0
-947 -992 0
-947 -993 0
-947 -994 0
-947 -995 0
-947 -996 0
-947 -997 0
-947 -998 0
-947 -999 0
-947 -1000 0
-947 -1001 0
-947 -1002 0
-947 -1003 0
-947 -1004 0
-947 -1005 0
-947 -1006 0
-947 -1007 0
-947 -1008 0
-947 -1009 0
-948 -949 0
-948 -950 0
-948 -951 0
-948 -952 0
-948 -953 0
-948 -954 0
-948 -955 0
-948 -956 0
-948 -957 0
-948 -958 0
-948 -959 0
-948 -960 0
-948 -961 0
-948 -962 0
-948 -963 0
-948 -964 0
-948 -965 0
-948 -966 0
-948 -967 0
-948 -968 0
-948 -969 0
-948 -970 0
-948 -971 0
-948 -972 0
-948 -973 0
-948 -974 0
-948 -975 0
-948 -976 0
-948 -977 0
-948 -978 0
-948 -979 0
-948 -980 0
-948 -981 0
-948 -982 0
-948 -983 0
-948 -984 0
-948 -985 0
-948 -986 0
-948 -987 0
-948 -988 0
-948 -989 0
-948 -990 0
-948 -991 0
-948 -992 0
-948 -993 0
-948 -994 0
-948 -995 0
-948 -996 0
-948 -997 0
-948 -998 0
-948 -999 0
-948 -1000 0
-948 -1001 0
-948 -1002 0
-948 -1003 0
-948 -1004 0
-948 -1005 0
-948 -1006 0
-948 -1007 0
-948 -1008 0
-948 -1009 0
-949 -950 0
-949 -951 0
-949 -952 0
-949 -953 0
-949 -954 0
-949 -955 0
-949 -956 0
-949 -957 0
-949 -958 0
-949 -959 0
-949 -960 0
-949 -961 0
-949 -962 0
-949 -963 0
-949 -964 0
-949 -965 0
-949 -966 0
-949 -967 0
-949 -968 0
-949 -969 0
-949 -970 0
-949 -971 0
-949 -972 0
-949 -973 0
-949 -974 0
-949 -975 0
-949 -976 0
-949 -977 0
-949 -978 0
-949 -979 0
-949 -980 0
-949 -981 0
-949 -982 0
-949 -983 0
-949 -984 0
-949 -985 0
-949 -986 0
-949 -987 0
-949 -988 0
-949 -989 0
-949 -990 0
-949 -991 0
-949 -992 0
-949 -993 0
-949 -994 0
-949 -995 0
-949 -996 0
-949 -997 0
-949 -998 0
-949 -999 0
-949 -1000 0
-949 -1001 0
-949 -1002 0
-949 -1003 0
-949 -1004 0
-949 -1005 0
-949 -1006 0
-949 -1007 0
-949 -1008 0
-949 -1009 0
-950 -951 0
-950 -952 0
-950 -953 0
-950 -954 0
-950 -955 0
-950 -956 0
-950 -957 0
-950 -958 0
-950 -959 0
-950 -960 0
-950 -961 0
-950 -962 0
-950 -963 0
-950 -964 0
-950 -965 0
-950 -966 0
-950 -967 0
-950 -968 0
-950 -969 0
-950 -970 0
-950 -971 0
-950 -972 0
-950 -973 0
-950 -974 0
-950 -975 0
-950 -976 0
-950 -977 0
-950 -978 0
-950 -979 0
-950 -980 0
-950 -981 0
-950 -982 0
-950 -983 0
-950 -984 0
-950 -985 0
-950 -986 0
-950 -987 0
-950 -988 0
-950 -989 0
-950 -990 0
-950 -991 0
-950 -992 0
-950 -993 0
-950 -994 0
-950 -995 0
-950 -996 0
-950 -997 0
-950 -998 0
-950 -999 0
-950 -1000 0
-950 -1001 0
-950 -1002 0
-950 -1003 0
-950 -1004 0
-950 -1005 0
-950 -1006 0
-950 -1007 0
-950 -1008 0
-950 -1009 0
-951 -952 0
-951 -953 0
-951 -954 0
-951 -955 0
-951 -956 0
-951 -957 0
-951 -958 0
-951 -959 0
-951 -960 0
-951 -961 0
-951 -962 0
-951 -963 0
-951 -964 0
-951 -965 0
-951 -966 0
-951 -967 0
-951 -968 0
-951 -969 0
-951 -970 0
-951 -971 0
-951 -972 0
-951 -973 0
-951 -974 0
-951 -975 0
-951 -976 0
-951 -977 0
-951 -978 0
-951 -979 0
-951 -980 0
-951 -981 0
-951 -982 0
-951 -983 0
-951 -984 0
-951 -985 0
-951 -986 0
-951 -987 0
-951 -988 0
-951 -989 0
-951 -990 0
-951 -991 0
-951 -992 0
-951 -993 0
-951 -994 0
-951 -995 0
-951 -996 0
-951 -997 0
-951 -998 0
-951 -999 0
-951 -1000 0
-951 -1001 0
-951 -1002 0
-951 -1003 0
-951 -1004 0
-951 -1005 0
-951 -1006 0
-951 -1007 0
-951 -1008 0
-951 -1009 0
-952 -953 0
-952 -954 0
-952 -955 0
-952 -956 0
-952 -957 0
-952 -958 0
-952 -959 0
-952 -960 0
-952 -961 0
-952 -962 0
-952 -963 0
-952 -964 0
-952 -965 0
-952 -966 0
-952 -967 0
-952 -968 0
-952 -969 0
-952 -970 0
-952 -971 0
-952 -972 0
-952 -973 0
-952 -974 0
-952 -975 0
-952 -976 0
-952 -977 0
-952 -978 0
-952 -979 0
-952 -980 0
-952 -981 0
-952 -982 0
-952 -983 0
-952 -984 0
-952 -985 0
-952 -986 0
-952 -987 0
-952 -988 0
-952 -989 0
-952 -990 0
-952 -991 0
-952 -992 0
-952 -993 0
-952 -994 0
-952 -995 0
-952 -996 0
-952 -997 0
-952 -998 0
-952 -999 0
-952 -1000 0
-952 -1001 0
-952 -1002 0
-952 -1003 0
-952 -1004 0
-952 -1005 0
-952 -1006 0
-952 -1007 0
-952 -1008 0
-952 -1009 0
-953 -954 0
-953 -955 0
-953 -956 0
-953 -957 0
-953 -958 0
-953 -959 0
-953 -960 0
-953 -961 0
-953 -962 0
-953 -963 0
-953 -964 0
-953 -965 0
-953 -966 0
-953 -967 0
-953 -968 0
-953 -969 0
-953 -970 0
-953 -971 0
-953 -972 0
-953 -973 0
-953 -974 0
-953 -975 0
-953 -976 0
-953 -977 0
-953 -978 0
-953 -979 0
-953 -980 0
-953 -981 0
-953 -982 0
-953 -983 0
-953 -984 0
-953 -985 0
-953 -986 0
-953 -987 0
-953 -988 0
-953 -989 0
-953 -990 0
-953 -991 0
-953 -992 0
-953 -993 0
-953 -994 0
-953 -995 0
-953 -996 0
-953 -997 0
-953 -998 0
-953 -999 0
-953 -1000 0
-953 -1001 0
-953 -1002 0
-953 -1003 0
-953 -1004 0
-953 -1005 0
-953 -1006 0
-953 -1007 0
-953 -1008 0
-953 -1009 0
-954 -955 0
-954 -956 0
-954 -957 0
-954 -958 0
-954 -959 0
-954 -960 0
-954 -961 0
-954 -962 0
-954 -963 0
-954 -964 0
-954 -965 0
-954 -966 0
-954 -967 0
-954 -968 0
-954 -969 0
-954 -970 0
-954 -971 0
-954 -972 0
-954 -973 0
-954 -974 0
-954 -975 0
-954 -976 0
-954 -977 0
-954 -978 0
-954 -979 0
-954 -980 0
-954 -981 0
-954 -982 0
-954 -983 0
-954 -984 0
-954 -985 0
-954 -986 0
-954 -987 0
-954 -988 0
-954 -989 0
-954 -990 0
-954 -991 0
-954 -992 0
-954 -993 0
-954 -994 0
-954 -995 0
-954 -996 0
-954 -997 0
-954 -998 0
-954 -999 0
-954 -1000 0
-954 -1001 0
-954 -1002 0
-954 -1003 0
-954 -1004 0
-954 -1005 0
-954 -1006 0
-954 -1007 0
-954 -1008 0
-954 -1009 0
-955 -956 0
-955 -957 0
-955 -958 0
-955 -959 0
-955 -960 0
-955 -961 0
-955 -962 0
-955 -963 0
-955 -964 0
-955 -965 0
-955 -966 0
-955 -967 0
-955 -968 0
-955 -969 0
-955 -970 0
-955 -971 0
-955 -972 0
-955 -973 0
-955 -974 0
-955 -975 0
-955 -976 0
-955 -977 0
-955 -978 0
-955 -979 0
-955 -980 0
-955 -981 0
-955 -982 0
-955 -983 0
-955 -984 0
-955 -985 0
-955 -986 0
-955 -987 0
-955 -988 0
-955 -989 0
-955 -990 0
-955 -991 0
-955 -992 0
-955 -993 0
-955 -994 0
-955 -995 0
-955 -996 0
-955 -997 0
-955 -998 0
-955 -999 0
-955 -1000 0
-955 -1001 0
-955 -1002 0
-955 -1003 0
-955 -1004 0
-955 -1005 0
-955 -1006 0
-955 -1007 0
-955 -1008 0
-955 -1009 0
-956 -957 0
-956 -958 0
-956 -959 0
-956 -960 0
-956 -961 0
-956 -962 0
-956 -963 0
-956 -964 0
-956 -965 0
-956 -966 0
-956 -967 0
-956 -968 0
-956 -969 0
-956 -970 0
-956 -971 0
-956 -972 0
-956 -973 0
-956 -974 0
-956 -975 0
-956 -976 0
-956 -977 0
-956 -978 0
-956 -979 0
-956 -980 0
-956 -981 0
-956 -982 0
-956 -983 0
-956 -984 0
-956 -985 0
-956 -986 0
-956 -987 0
-956 -988 0
-956 -989 0
-956 -990 0
-956 -991 0
-956 -992 0
-956 -993 0
-956 -994 0
-956 -995 0
-956 -996 0
-956 -997 0
-956 -998 0
-956 -999 0
-956 -1000 0
-956 -1001 0
-956 -1002 0
-956 -1003 0
-956 -1004 0
-956 -1005 0
-956 -1006 0
-956 -1007 0
-956 -1008 0
-956 -1009 0
-957 -958 0
-957 -959 0
-957 -960 0
-957 -961 0
-957 -962 0
-957 -963 0
-957 -964 0
-957 -965 0
-957 -966 0
-957 -967 0
-957 -968 0
-957 -969 0
-957 -970 0
-957 -971 0
-957 -972 0
-957 -973 0
-957 -974 0
-957 -975 0
-957 -976 0
-957 -977 0
-957 -978 0
-957 -979 0
-957 -980 0
-957 -981 0
-957 -982 0
-957 -983 0
-957 -984 0
-957 -985 0
-957 -986 0
-957 -987 0
-957 -988 0
-957 -989 0
-957 -990 0
-957 -991 0
-957 -992 0
-957 -993 0
-957 -994 0
-957 -995 0
-957 -996 0
-957 -997 0
-957 -998 0
-957 -999 0
-957 -1000 0
-957 -1001 0
-957 -1002 0
-957 -1003 0
-957 -1004 0
-957 -1005 0
-957 -1006 0
-957 -1007 0
-957 -1008 0
-957 -1009 0
-958 -959 0
-958 -960 0
-958 -961 0
-958 -962 0
-958 -963 0
-958 -964 0
-958 -965 0
-958 -966 0
-958 -967 0
-958 -968 0
-958 -969 0
-958 -970 0
-958 -971 0
-958 -972 0
-958 -973 0
-958 -974 0
-958 -975 0
-958 -976 0
-958 -977 0
-958 -978 0
-958 -979 0
-958 -980 0
-958 -981 0
-958 -982 0
-958 -983 0
-958 -984 0
-958 -985 0
-958 -986 0
-958 -987 0
-958 -988 0
-958 -989 0
-958 -990 0
-958 -991 0
-958 -992 0
-958 -993 0
-958 -994 0
-958 -995 0
-958 -996 0
-958 -997 0
-958 -998 0
-958 -999 0
-958 -1000 0
-958 -1001 0
-958 -1002 0
-958 -1003 0
-958 -1004 0
-958 -1005 0
-958 -1006 0
-958 -1007 0
-958 -1008 0
-958 -1009 0
-959 -960 0
-959 -961 0
-959 -962 0
-959 -963 0
-959 -964 0
-959 -965 0
-959 -966 0
-959 -967 0
-959 -968 0
-959 -969 0
-959 -970 0
-959 -971 0
-959 -972 0
-959 -973 0
-959 -974 0
-959 -975 0
-959 -976 0
-959 -977 0
-959 -978 0
-959 -979 0
-959 -980 0
-959 -981 0
-959 -982 0
-959 -983 0
-959 -984 0
-959 -985 0
-959 -986 0
-959 -987 0
-959 -988 0
-959 -989 0
-959 -990 0
-959 -991 0
-959 -992 0
-959 -993 0
-959 -994 0
-959 -995 0
-959 -996 0
-959 -997 0
-959 -998 0
-959 -999 0
-959 -1000 0
-959 -1001 0
-959 -1002 0
-959 -1003 0
-959 -1004 0
-959 -1005 0
-959 -1006 0
-959 -1007 0
-959 -1008 0
-959 -1009 0
-960 -961 0
-960 -962 0
-960 -963 0
-960 -964 0
-960 -965 0
-960 -966 0
-960 -967 0
-960 -968 0
-960 -969 0
-960 -970 0
-960 -971 0
-960 -972 0
-960 -973 0
-960 -974 0
-960 -975 0
-960 -976 0
-960 -977 0
-960 -978 0
-960 -979 0
-960 -980 0
-960 -981 0
-960 -982 0
-960 -983 0
-960 -984 0
-960 -985 0
-960 -986 0
-960 -987 0
-960 -988 0
-960 -989 0
-960 -990 0
-960 -991 0
-960 -992 0
-960 -993 0
-960 -994 0
-960 -995 0
-960 -996 0
-960 -997 0
-960 -998 0
-960 -999 0
-960 -1000 0
-960 -1001 0
-960 -1002 0
-960 -1003 0
-960 -1004 0
-960 -1005 0
-960 -1006 0
-960 -1007 0
-960 -1008 0
-960 -1009 0
-961 -962 0
-961 -963 0
-961 -964 0
-961 -965 0
-961 -966 0
-961 -967 0
-961 -968 0
-961 -969 0
-961 -970 0
-961 -971 0
-961 -972 0
-961 -973 0
-961 -974 0
-961 -975 0
-961 -976 0
-961 -977 0
-961 -978 0
-961 -979 0
-961 -980 0
-961 -981 0
-961 -982 0
-961 -983 0
-961 -984 0
-961 -985 0
-961 -986 0
-961 -987 0
-961 -988 0
-961 -989 0
-961 -990 0
-961 -991 0
-961 -992 0
-961 -993 0
-961 -994 0
-961 -995 0
-961 -996 0
-961 -997 0
-961 -998 0
-961 -999 0
-961 -1000 0
-961 -1001 0
-961 -1002 0
-961 -1003 0
-961 -1004 0
-961 -1005 0
-961 -1006 0
-961 -1007 0
-961 -1008 0
-961 -1009 0
-962 -963 0
-962 -964 0
-962 -965 0
-962 -966 0
-962 -967 0
-962 -968 0
-962 -969 0
-962 -970 0
-962 -971 0
-962 -972 0
-962 -973 0
-962 -974 0
-962 -975 0
-962 -976 0
-962 -977 0
-962 -978 0
-962 -979 0
-962 -980 0
-962 -981 0
-962 -982 0
-962 -983 0
-962 -984 0
-962 -985 0
-962 -986 0
-962 -987 0
-962 -988 0
-962 -989 0
-962 -990 0
-962 -991 0
-962 -992 0
-962 -993 0
-962 -994 0
-962 -995 0
-962 -996 0
-962 -997 0
-962 -998 0
-962 -999 0
-962 -1000 0
-962 -1001 0
-962 -1002 0
-962 -1003 0
-962 -1004 0
-962 -1005 0
-962 -1006 0
-962 -1007 0
-962 -1008 0
-962 -1009 0
-963 -964 0
-963 -965 0
-963 -966 0
-963 -967 0
-963 -968 0
-963 -969 0
-963 -970 0
-963 -971 0
-963 -972 0
-963 -973 0
-963 -974 0
-963 -975 0
-963 -976 0
-963 -977 0
-963 -978 0
-963 -979 0
-963 -980 0
-963 -981 0
-963 -982 0
-963 -983 0
-963 -984 0
-963 -985 0
-963 -986 0
-963 -987 0
-963 -988 0
-963 -989 0
-963 -990 0
-963 -991 0
-963 -992 0
-963 -993 0
-963 -994 0
-963 -995 0
-963 -996 0
-963 -997 0
-963 -998 0
-963 -999 0
-963 -1000 0
-963 -1001 0
-963 -1002 0
-963 -1003 0
-963 -1004 0
-963 -1005 0
-963 -1006 0
-963 -1007 0
-963 -1008 0
-963 -1009 0
-964 -965 0
-964 -966 0
-964 -967 0
-964 -968 0
-964 -969 0
-964 -970 0
-964 -971 0
-964 -972 0
-964 -973 0
-964 -974 0
-964 -975 0
-964 -976 0
-964 -977 0
-964 -978 0
-964 -979 0
-964 -980 0
-964 -981 0
-964 -982 0
-964 -983 0
-964 -984 0
-964 -985 0
-964 -986 0
-964 -987 0
-964 -988 0
-964 -989 0
-964 -990 0
-964 -991 0
-964 -992 0
-964 -993 0
-964 -994 0
-964 -995 0
-964 -996 0
-964 -997 0
-964 -998 0
-964 -999 0
-964 -1000 0
-964 -1001 0
-964 -1002 0
-964 -1003 0
-964 -1004 0
-964 -1005 0
-964 -1006 0
-964 -1007 0
-964 -1008 0
-964 -1009 0
-965 -966 0
-965 -967 0
-965 -968 0
-965 -969 0
-965 -970 0
-965 -971 0
-965 -972 0
-965 -973 0
-965 -974 0
-965 -975 0
-965 -976 0
-965 -977 0
-965 -978 0
-965 -979 0
-965 -980 0
-965 -981 0
-965 -982 0
-965 -983 0
-965 -984 0
-965 -985 0
-965 -986 0
-965 -987 0
-965 -988 0
-965 -989 0
-965 -990 0
-965 -991 0
-965 -992 0
-965 -993 0
-965 -994 0
-965 -995 0
-965 -996 0
-965 -997 0
-965 -998 0
-965 -999 0
-965 -1000 0
-965 -1001 0
-965 -1002 0
-965 -1003 0
-965 -1004 0
-965 -1005 0
-965 -1006 0
-965 -1007 0
-965 -1008 0
-965 -1009 0
-966 -967 0
-966 -968 0
-966 -969 0
-966 -970 0
-966 -971 0
-966 -972 0
-966 -973 0
-966 -974 0
-966 -975 0
-966 -976 0
-966 -977 0
-966 -978 0
-966 -979 0
-966 -980 0
-966 -981 0
-966 -982 0
-966 -983 0
-966 -984 0
-966 -985 0
-966 -986 0
-966 -987 0
-966 -988 0
-966 -989 0
-966 -990 0
-966 -991 0
-966 -992 0
-966 -993 0
-966 -994 0
-966 -995 0
-966 -996 0
-966 -997 0
-966 -998 0
-966 -999 0
-966 -1000 0
-966 -1001 0
-966 -1002 0
-966 -1003 0
-966 -1004 0
-966 -1005 0
-966 -1006 0
-966 -1007 0
-966 -1008 0
-966 -1009 0
-967 -968 0
-967 -969 0
-967 -970 0
-967 -971 0
-967 -972 0
-967 -973 0
-967 -974 0
-967 -975 0
-967 -976 0
-967 -977 0
-967 -978 0
-967 -979 0
-967 -980 0
-967 -981 0
-967 -982 0
-967 -983 0
-967 -984 0
-967 -985 0
-967 -986 0
-967 -987 0
-967 -988 0
-967 -989 0
-967 -990 0
-967 -991 0
-967 -992 0
-967 -993 0
-967 -994 0
-967 -995 0
-967 -996 0
-967 -997 0
-967 -998 0
-967 -999 0
-967 -1000 0
-967 -1001 0
-967 -1002 0
-967 -1003 0
-967 -1004 0
-967 -1005 0
-967 -1006 0
-967 -1007 0
-967 -1008 0
-967 -1009 0
-968 -969 0
-968 -970 0
-968 -971 0
-968 -972 0
-968 -973 0
-968 -974 0
-968 -975 0
-968 -976 0
-968 -977 0
-968 -978 0
-968 -979 0
-968 -980 0
-968 -981 0
-968 -982 0
-968 -983 0
-968 -984 0
-968 -985 0
-968 -986 0
-968 -987 0
-968 -988 0
-968 -989 0
-968 -990 0
-968 -991 0
-968 -992 0
-968 -993 0
-968 -994 0
-968 -995 0
-968 -996 0
-968 -997 0
-968 -998 0
-968 -999 0
-968 -1000 0
-968 -1001 0
-968 -1002 0
-968 -1003 0
-968 -1004 0
-968 -1005 0
-968 -1006 0
-968 -1007 0
-968 -1008 0
-968 -1009 0
-969 -970 0
-969 -971 0
-969 -972 0
-969 -973 0
-969 -974 0
-969 -975 0
-969 -976 0
-969 -977 0
-969 -978 0
-969 -979 0
-969 -980 0
-969 -981 0
-969 -982 0
-969 -983 0
-969 -984 0
-969 -985 0
-969 -986 0
-969 -987 0
-969 -988 0
-969 -989 0
-969 -990 0
-969 -991 0
-969 -992 0
-969 -993 0
-969 -994 0
-969 -995 0
-969 -996 0
-969 -997 0
-969 -998 0
-969 -999 0
-969 -1000 0
-969 -1001 0
-969 -1002 0
-969 -1003 0
-969 -1004 0
-969 -1005 0
-969 -1006 0
-969 -1007 0
-969 -1008 0
-969 -1009 0
-970 -971 0
-970 -972 0
-970 -973 0
-970 -974 0
-970 -975 0
-970 -976 0
-970 -977 0
-970 -978 0
-970 -979 0
-970 -980 0
-970 -981 0
-970 -982 0
-970 -983 0
-970 -984 0
-970 -985 0
-970 -986 0
-970 -987 0
-970 -988 0
-970 -989 0
-970 -990 0
-970 -991 0
-970 -992 0
-970 -993 0
-970 -994 0
-970 -995 0
-970 -996 0
-970 -997 0
-970 -998 0
-970 -999 0
-970 -1000 0
-970 -1001 0
-970 -1002 0
-970 -1003 0
-970 -1004 0
-970 -1005 0
-970 -1006 0
-970 -1007 0
-970 -1008 0
-970 -1009 0
-971 -972 0
-971 -973 0
-971 -974 0
-971 -975 0
-971 -976 0
-971 -977 0
-971 -978 0
-971 -979 0
-971 -980 0
-971 -981 0
-971 -982 0
-971 -983 0
-971 -984 0
-971 -985 0
-971 -986 0
-971 -987 0
-971 -988 0
-971 -989 0
-971 -990 0
-971 -991 0
-971 -992 0
-971 -993 0
-971 -994 0
-971 -995 0
-971 -996 0
-971 -997 0
-971 -998 0
-971 -999 0
-971 -1000 0
-971 -1001 0
-971 -1002 0
-971 -1003 0
-971 -1004 0
-971 -1005 0
-971 -1006 0
-971 -1007 0
-971 -1008 0
-971 -1009 0
-972 -973 0
-972 -974 0
-972 -975 0
-972 -976 0
-972 -977 0
-972 -978 0
-972 -979 0
-972 -980 0
-972 -981 0
-972 -982 0
-972 -983 0
-972 -984 0
-972 -985 0
-972 -986 0
-972 -987 0
-972 -988 0
-972 -989 0
-972 -990 0
-972 -991 0
-972 -992 0
-972 -993 0
-972 -994 0
-972 -995 0
-972 -996 0
-972 -997 0
-972 -998 0
-972 -999 0
-972 -1000 0
-972 -1001 0
-972 -1002 0
-972 -1003 0
-972 -1004 0
-972 -1005 0
-972 -1006 0
-972 -1007 0
-972 -1008 0
-972 -1009 0
-973 -974 0
-973 -975 0
-973 -976 0
-973 -977 0
-973 -978 0
-973 -979 0
-973 -980 0
-973 -981 0
-973 -982 0
-973 -983 0
-973 -984 0
-973 -985 0
-973 -986 0
-973 -987 0
-973 -988 0
-973 -989 0
-973 -990 0
-973 -991 0
-973 -992 0
-973 -993 0
-973 -994 0
-973 -995 0
-973 -996 0
-973 -997 0
-973 -998 0
-973 -999 0
-973 -1000 0
-973 -1001 0
-973 -1002 0
-973 -1003 0
-973 -1004 0
-973 -1005 0
-973 -1006 0
-973 -1007 0
-973 -1008 0
-973 -1009 0
-974 -975 0
-974 -976 0
-974 -977 0
-974 -978 0
-974 -979 0
-974 -980 0
-974 -981 0
-974 -982 0
-974 -983 0
-974 -984 0
-974 -985 0
-974 -986 0
-974 -987 0
-974 -988 0
-974 -989 0
-974 -990 0
-974 -991 0
-974 -992 0
-974 -993 0
-974 -994 0
-974 -995 0
-974 -996 0
-974 -997 0
-974 -998 0
-974 -999 0
-974 -1000 0
-974 -1001 0
-974 -1002 0
-974 -1003 0
-974 -1004 0
-974 -1005 0
-974 -1006 0
-974 -1007 0
-974 -1008 0
-974 -1009 0
-975 -976 0
-975 -977 0
-975 -978 0
-975 -979 0
-975 -980 0
-975 -981 0
-975 -982 0
-975 -983 0
-975 -984 0
-975 -985 0
-975 -986 0
-975 -987 0
-975 -988 0
-975 -989 0
-975 -990 0
-975 -991 0
-975 -992 0
-975 -993 0
-975 -994 0
-975 -995 0
-975 -996 0
-975 -997 0
-975 -998 0
-975 -999 0
-975 -1000 0
-975 -1001 0
-975 -1002 0
-975 -1003 0
-975 -1004 0
-975 -1005 0
-975 -1006 0
-975 -1007 0
-975 -1008 0
-975 -1009 0
-976 -977 0
-976 -978 0
-976 -979 0
-976 -980 0
-976 -981 0
-976 -982 0
-976 -983 0
-976 -984 0
-976 -985 0
-976 -986 0
-976 -987 0
-976 -988 0
-976 -989 0
-976 -990 0
-976 -991 0
-976 -992 0
-976 -993 0
-976 -994 0
-976 -995 0
-976 -996 0
-976 -997 0
-976 -998 0
-976 -999 0
-976 -1000 0
-976 -1001 0
-976 -1002 0
-976 -1003 0
-976 -1004 0
-976 -1005 0
-976 -1006 0
-976 -1007 0
-976 -1008 0
-976 -1009 0
-977 -978 0
-977 -979 0
-977 -980 0
-977 -981 0
-977 -982 0
-977 -983 0
-977 -984 0
-977 -985 0
-977 -986 0
-977 -987 0
-977 -988 0
-977 -989 0
-977 -990 0
-977 -991 0
-977 -992 0
-977 -993 0
-977 -994 0
-977 -995 0
-977 -996 0
-977 -997 0
-977 -998 0
-977 -999 0
-977 -1000 0
-977 -1001 0
-977 -1002 0
-977 -1003 0
-977 -1004 0
-977 -1005 0
-977 -1006 0
-977 -1007 0
-977 -1008 0
-977 -1009 0
-978 -979 0
-978 -980 0
-978 -981 0
-978 -982 0
-978 -983 0
-978 -984 0
-978 -985 0
-978 -986 0
-978 -987 0
-978 -988 0
-978 -989 0
-978 -990 0
-978 -991 0
-978 -992 0
-978 -993 0
-978 -994 0
-978 -995 0
-978 -996 0
-978 -997 0
-978 -998 0
-978 -999 0
-978 -1000 0
-978 -1001 0
-978 -1002 0
-978 -1003 0
-978 -1004 0
-978 -1005 0
-978 -1006 0
-978 -1007 0
-978 -1008 0
-978 -1009 0
-979 -980 0
-979 -981 0
-979 -982 0
-979 -983 0
-979 -984 0
-979 -985 0
-979 -986 0
-979 -987 0
-979 -988 0
-979 -989 0
-979 -990 0
-979 -991 0
-979 -992 0
-979 -993 0
-979 -994 0
-979 -995 0
-979 -996 0
-979 -997 0
-979 -998 0
-979 -999 0
-979 -1000 0
-979 -1001 0
-979 -1002 0
-979 -1003 0
-979 -1004 0
-979 -1005 0
-979 -1006 0
-979 -1007 0
-979 -1008 0
-979 -1009 0
-980 -981 0
-980 -982 0
-980 -983 0
-980 -984 0
-980 -985 0
-980 -986 0
-980 -987 0
-980 -988 0
-980 -989 0
-980 -990 0
-980 -991 0
-980 -992 0
-980 -993 0
-980 -994 0
-980 -995 0
-980 -996 0
-980 -997 0
-980 -998 0
-980 -999 0
-980 -1000 0
-980 -1001 0
-980 -1002 0
-980 -1003 0
-980 -1004 0
-980 -1005 0
-980 -1006 0
-980 -1007 0
-980 -1008 0
-980 -1009 0
-981 -982 0
-981 -983 0
-981 -984 0
-981 -985 0
-981 -986 0
-981 -987 0
-981 -988 0
-981 -989 0
-981 -990 0
-981 -991 0
-981 -992 0
-981 -993 0
-981 -994 0
-981 -995 0
-981 -996 0
-981 -997 0
-981 -998 0
-981 -999 0
-981 -1000 0
-981 -1001 0
-981 -1002 0
-981 -1003 0
-981 -1004 0
-981 -1005 0
-981 -1006 0
-981 -1007 0
-981 -1008 0
-981 -1009 0
-982 -983 0
-982 -984 0
-982 -985 0
-982 -986 0
-982 -987 0
-982 -988 0
-982 -989 0
-982 -990 0
-982 -991 0
-982 -992 0
-982 -993 0
-982 -994 0
-982 -995 0
-982 -996 0
-982 -997 0
-982 -998 0
-982 -999 0
-982 -1000 0
-982 -1001 0
-982 -1002 0
-982 -1003 0
-982 -1004 0
-982 -1005 0
-982 -1006 0
-982 -1007 0
-982 -1008 0
-982 -1009 0
-983 -984 0
-983 -985 0
-983 -986 0
-983 -987 0
-983 -988 0
-983 -989 0
-983 -990 0
-983 -991 0
-983 -992 0
-983 -993 0
-983 -994 0
-983 -995 0
-983 -996 0
-983 -997 0
-983 -998 0
-983 -999 0
-983 -1000 0
-983 -1001 0
-983 -1002 0
-983 -1003 0
-983 -1004 0
-983 -1005 0
-983 -1006 0
-983 -1007 0
-983 -1008 0
-983 -1009 0
-984 -985 0
-984 -986 0
-984 -987 0
-984 -988 0
-984 -989 0
-984 -990 0
-984 -991 0
-984 -992 0
-984 -993 0
-984 -994 0
-984 -995 0
-984 -996 0
-984 -997 0
-984 -998 0
-984 -999 0
-984 -1000 0
-984 -1001 0
-984 -1002 0
-984 -1003 0
-984 -1004 0
-984 -1005 0
-984 -1006 0
-984 -1007 0
-984 -1008 0
-984 -1009 0
-985 -986 0
-985 -987 0
-985 -988 0
-985 -989 0
-985 -990 0
-985 -991 0
-985 -992 0
-985 -993 0
-985 -994 0
-985 -995 0
-985 -996 0
-985 -997 0
-985 -998 0
-985 -999 0
-985 -1000 0
-985 -1001 0
-985 -1002 0
-985 -1003 0
-985 -1004 0
-985 -1005 0
-985 -1006 0
-985 -1007 0
-985 -1008 0
-985 -1009 0
-986 -987 0
-986 -988 0
-986 -989 0
-986 -990 0
-986 -991 0
-986 -992 0
-986 -993 0
-986 -994 0
-986 -995 0
-986 -996 0
-986 -997 0
-986 -998 0
-986 -999 0
-986 -1000 0
-986 -1001 0
-986 -1002 0
-986 -1003 0
-986 -1004 0
-986 -1005 0
-986 -1006 0
-986 -1007 0
-986 -1008 0
-986 -1009 0
-987 -988 0
-987 -989 0
-987 -990 0
-987 -991 0
-987 -992 0
-987 -993 0
-987 -994 0
-987 -995 0
-987 -996 0
-987 -997 0
-987 -998 0
-987 -999 0
-987 -1000 0
-987 -1001 0
-987 -1002 0
-987 -1003 0
-987 -1004 0
-987 -1005 0
-987 -1006 0
-987 -1007 0
-987 -1008 0
-987 -1009 0
-988 -989 0
-988 -990 0
-988 -991 0
-988 -992 0
-988 -993 0
-988 -994 0
-988 -995 0
-988 -996 0
-988 -997 0
-988 -998 0
-988 -999 0
-988 -1000 0
-988 -1001 0
-988 -1002 0
-988 -1003 0
-988 -1004 0
-988 -1005 0
-988 -1006 0
-988 -1007 0
-988 -1008 0
-988 -1009 0
-989 -990 0
-989 -991 0
-989 -992 0
-989 -993 0
-989 -994 0
-989 -995 0
-989 -996 0
-989 -997 0
-989 -998 0
-989 -999 0
-989 -1000 0
-989 -1001 0
-989 -1002 0
-989 -1003 0
-989 -1004 0
-989 -1005 0
-989 -1006 0
-989 -1007 0
-989 -1008 0
-989 -1009 0
-990 -991 0
-990 -992 0
-990 -993 0
-990 -994 0
-990 -995 0
-990 -996 0
-990 -997 0
-990 -998 0
-990 -999 0
-990 -1000 0
-990 -1001 0
-990 -1002 0
-990 -1003 0
-990 -1004 0
-990 -1005 0
-990 -1006 0
-990 -1007 0
-990 -1008 0
-990 -1009 0
-991 -992 0
-991 -993 0
-991 -994 0
-991 -995 0
-991 -996 0
-991 -997 0
-991 -998 0
-991 -999 0
-991 -1000 0
-991 -1001 0
-991 -1002 0
-991 -1003 0
-991 -1004 0
-991 -1005 0
-991 -1006 0
-991 -1007 0
-991 -1008 0
-991 -1009 0
-992 -993 0
-992 -994 0
-992 -995 0
-992 -996 0
-992 -997 0
-992 -998 0
-992 -999 0
-992 -1000 0
-992 -1001 0
-992 -1002 0
-992 -1003 0
-992 -1004 0
-992 -1005 0
-992 -1006 0
-992 -1007 0
-992 -1008 0
-992 -1009 0
-993 -994 0
-993 -995 0
-993 -996 0
-993 -997 0
-993 -998 0
-993 -999 0
-993 -1000 0
-993 -1001 0
-993 -1002 0
-993 -1003 0
-993 -1004 0
-993 -1005 0
-993 -1006 0
-993 -1007 0
-993 -1008 0
-993 -1009 0
-994 -995 0
-994 -996 0
-994 -997 0
-994 -998 0
-994 -999 0
-994 -1000 0
-994 -1001 0
-994 -1002 0
-994 -1003 0
-994 -1004 0
-994 -1005 0
-994 -1006 0
-994 -1007 0
-994 -1008 0
-994 -1009 0
-995 -996 0
-995 -997 0
-995 -998 0
-995 -999 0
-995 -1000 0
-995 -1001 0
-995 -1002 0
-995 -1003 0
-995 -1004 0
-995 -1005 0
-995 -1006 0
-995 -1007 0
-995 -1008 0
-995 -1009 0
-996 -997 0
-996 -998 0
-996 -999 0
-996 -1000 0
-996 -1001 0
-996 -1002 0
-996 -1003 0
-996 -1004 0
-996 -1005 0
-996 -1006 0
-996 -1007 0
-996 -1008 0
-996 -1009 0
-997 -998 0
-997 -999 0
-997 -1000 0
-997 -1001 0
-997 -1002 0
-997 -1003 0
-997 -1004 0
-997 -1005 0
-997 -1006 0
-997 -1007 0
-997 -1008 0
-997 -1009 0
-998 -999 0
-998 -1000 0
-998 -1001 0
-998 -1002 0
-998 -1003 0
-998 -1004 0
-998 -1005 0
-998 -1006 0
-998 -1007 0
-998 -1008 0
-998 -1009 0
-999 -1000 0
-999 -1001 0
-999 -1002 0
-999 -1003 0
-999 -1004 0
-999 -1005 0
-999 -1006 0
-999 -1007 0
-999 -1008 0
-999 -1009 0
-1000 -1001 0
-1000 -1002 0
-1000 -1003 0
-1000 -1004 0
-1000 -1005 0
-1000 -1006 0
-1000 -1007 0
-1000 -1008 0
-1000 -1009 0
-1001 -1002 0
-1001 -1003 0
-1001 -1004 0
-1001 -1005 0
-1001 -1006 0
-1001 -1007 0
-1001 -1008 0
-1001 -1009 0
-1002 -1003 0
-1002 -1004 0
-1002 -1005 0
-1002 -1006 0
-1002 -1007 0
-1002 -1008 0
-1002 -1009 0
-1003 -1004 0
-1003 -1005 0
-1003 -1006 0
-1003 -1007 0
-1003 -1008 0
-1003 -1009 0
-1004 -1005 0
-1004 -1006 0
-1004 -1007 0
-1004 -1008 0
-1004 -1009 0
-1005 -1006 0
-1005 -1007 0
-1005 -1008 0
-1005 -1009 0
-1006 -1007 0
-1006 -1008 0
-1006 -1009 0
-1007 -1008 0
-1007 -1009 0
-1008 -1009 0
-926 38 0
-926 186 0
-926 -8 0
-926 -9 0
-926 -10 0
-926 -11 0
-926 -12 0
-926 -26 208 0
-926 -26 -91 0
-926 -26 -115 0
-926 -26 -139 0
-926 -26 -1 -23 0
-926 -27 209 0
-926 -27 -92 0
-926 -27 -116 0
-926 -27 -140 0
-926 -27 -1 -24 0
-926 -28 210 0
-926 -28 -93 0
-926 -28 -117 0
-926 -28 -141 0
-926 -28 -1 -25 0
-926 -29 0
-927 38 0
-927 187 0
-927 -7 0
-927 -9 0
-927 -10 0
-927 -11 0
-927 -12 0
-927 -26 208 0
-927 -26 -95 0
-927 -26 -119 0
-927 -26 -143 0
-927 -26 -2 -23 0
-927 -27 209 0
-927 -27 -96 0
-927 -27 -120 0
-927 -27 -144 0
-927 -27 -2 -24 0
-927 -28 210 0
-927 -28 -97 0
-927 -28 -121 0
-927 -28 -145 0
-927 -28 -2 -25 0
-927 -29 0
-928 38 0
-928 188 0
-928 -7 0
-928 -8 0
-928 -10 0
-928 -11 0
-928 -12 0
-928 -26 208 0
-928 -26 -99 0
-928 -26 -123 0
-928 -26 -147 0
-928 -26 -3 -23 0
-928 -27 209 0
-928 -27 -100 0
-928 -27 -124 0
-928 -27 -148 0
-928 -27 -3 -24 0
-928 -28 210 0
-928 -28 -101 0
-928 -28 -125 0
-928 -28 -149 0
-928 -28 -3 -25 0
-928 -29 0
-929 38 0
-929 189 0
-929 -7 0
-929 -8 0
-929 -9 0
-929 -11 0
-929 -12 0
-929 -26 208 0
-929 -26 -103 0
-929 -26 -127 0
-929 -26 -151 0
-929 -26 -4 -23 0
-929 -27 209 0
-929 -27 -104 0
-929 -27 -128 0
-929 -27 -152 0
-929 -27 -4 -24 0
-929 -28 210 0
-929 -28 -105 0
-929 -28 -129 0
-929 -28 -153 0
-929 -28 -4 -25 0
-929 -29 0
-930 38 0
-930 190 0
-930 -7 0
-930 -8 0
-930 -9 0
-930 -10 0
-930 -12 0
-930 -26 208 0
-930 -26 -107 0
-930 -26 -131 0
-930 -26 -155 0
-930 -26 -5 -23 0
-930 -27 209 0
-930 -27 -108 0
-930 -27 -132 0
-930 -27 -156 0
-930 -27 -5 -24 0
-930 -28 210 0
-930 -28 -109 0
-930 -28 -133 0
-930 -28 -157 0
-930 -28 -5 -25 0
-930 -29 0
-931 38 0
-931 191 0
-931 -7 0
-931 -8 0
-931 -9 0
-931 -10 0
-931 -11 0
-931 -26 208 0
-931 -26 -111 0
-931 -26 -135 0
-931 -26 -159 0
-931 -26 -6 -23 0
-931 -27 209 0
-931 -27 -112 0
-931 -27 -136 0
-931 -27 -160 0
-931 -27 -6 -24 0
-931 -28 210 0
-931 -28 -113 0
-931 -28 -137 0
-931 -28 -161 0
-931 -28 -6 -25 0
-931 -29 0
-932 38 0
-932 186 0
-932 -14 0
-932 -15 0
-932 -16 0
-932 -17 0
-932 -30 208 0
-932 -30 -91 0
-932 -30 -115 0
-932 -30 -139 0
-932 -30 -1 -23 0
-932 -31 209 0
-932 -31 -92 0
-932 -31 -116 0
-932 -31 -140 0
-932 -31 -1 -24 0
-932 -32 210 0
-932 -32 -93 0
-932 -32 -117 0
-932 -32 -141 0
-932 -32 -1 -25 0
-932 -33 0
-933 38 0
-933 187 0
-933 -15 0
-933 -16 0
-933 -17 0
-933 -30 208 0
-933 -30 -95 0
-933 -30 -119 0
-933 -30 -143 0
-933 -30 -2 -23 0
-933 -31 209 0
-933 -31 -96 0
-933 -31 -120 0
-933 -31 -144 0
-933 -31 -2 -24 0
-933 -32 210 0
-933 -32 -97 0
-933 -32 -121 0
-933 -32 -145 0
-933 -32 -2 -25 0
-933 -33 0
-934 38 0
-934 188 0
-934 -13 0
-934 -16 0
-934 -17 0
-934 -30 208 0
-934 -30 -99 0
-934 -30 -123 0
-934 -30 -147 0
-934 -30 -3 -23 0
-934 -31 209 0
-934 -31 -100 0
-934 -31 -124 0
-934 -31 -148 0
-934 -31 -3 -24 0
-934 -32 210 0
-934 -32 -101 0
-934 -32 -125 0
-934 -32 -149 0
-934 -32 -3 -25 0
-934 -33 0
-935 38 0
-935 189 0
-935 -13 0
-935 -14 0
-935 -17 0
-935 -30 208 0
-935 -30 -103 0
-935 -30 -127 0
-935 -30 -151 0
-935 -30 -4 -23 0
-935 -31 209 0
-935 -31 -104 0
-935 -31 -128 0
-935 -31 -152 0
-935 -31 -4 -24 0
-935 -32 210 0
-935 -32 -105 0
-935 -32 -129 0
-935 -32 -153 0
-935 -32 -4 -25 0
-935 -33 0
-936 38 0
-936 190 0
-936 -13 0
-936 -14 0
-936 -15 0
-936 -30 208 0
-936 -30 -107 0
-936 -30 -131 0
-936 -30 -155 0
-936 -30 -5 -23 0
-936 -31 209 0
-936 -31 -108 0
-936 -31 -132 0
-936 -31 -156 0
-936 -31 -5 -24 0
-936 -32 210 0
-936 -32 -109 0
-936 -32 -133 0
-936 -32 -157 0
-936 -32 -5 -25 0
-936 -33 0
-937 38 0
-937 191 0
-937 -13 0
-937 -14 0
-937 -15 0
-937 -16 0
-937 -30 208 0
-937 -30 -111 0
-937 -30 -135 0
-937 -30 -159 0
-937 -30 -6 -23 0
-937 -31 209 0
-937 -31 -112 0
-937 -31 -136 0
-937 -31 -160 0
-937 -31 -6 -24 0
-937 -32 210 0
-937 -32 -113 0
-937 -32 -137 0
-937 -32 -161 0
-937 -32 -6 -25 0
-937 -33 0
-938 38 0
-938 186 0
-938 -19 0
-938 -20 0
-938 -21 0
-938 -34 208 0
-938 -34 -91 0
-938 -34 -115 0
-938 -34 -139 0
-938 -34 -1 -23 0
-938 -35 209 0
-938 -35 -92 0
-938 -35 -116 0
-938 -35 -140 0
-938 -35 -1 -24 0
-938 -36 210 0
-938 -36 -93 0
-938 -36 -117 0
-938 -36 -141 0
-938 -36 -1 -25 0
-938 -37 0
-939 38 0
-939 187 0
-939 -20 0
-939 -21 0
-939 -34 208 0
-939 -34 -95 0
-939 -34 -119 0
-939 -34 -143 0
-939 -34 -2 -23 0
-939 -35 209 0
-939 -35 -96 0
-939 -35 -120 0
-939 -35 -144 0
-939 -35 -2 -24 0
-939 -36 210 0
-939 -36 -97 0
-939 -36 -121 0
-939 -36 -145 0
-939 -36 -2 -25 0
-939 -37 0
-940 38 0
-940 188 0
-940 -21 0
-940 -34 208 0
-940 -34 -99 0
-940 -34 -123 0
-940 -34 -147 0
-940 -34 -3 -23 0
-940 -35 209 0
-940 -35 -100 0
-940 -35 -124 0
-940 -35 -148 0
-940 -35 -3 -24 0
-940 -36 210 0
-940 -36 -101 0
-940 -36 -125 0
-940 -36 -149 0
-940 -36 -3 -25 0
-940 -37 0
-941 38 0
-941 189 0
-941 -18 0
-941 -34 208 0
-941 -34 -103 0
-941 -34 -127 0
-941 -34 -151 0
-941 -34 -4 -23 0
-941 -35 209 0
-941 -35 -104 0
-941 -35 -128 0
-941 -35 -152 0
-941 -35 -4 -24 0
-941 -36 210 0
-941 -36 -105 0
-941 -36 -129 0
-941 -36 -153 0
-941 -36 -4 -25 0
-941 -37 0
-942 38 0
-942 190 0
-942 -18 0
-942 -19 0
-942 -34 208 0
-942 -34 -107 0
-942 -34 -131 0
-942 -34 -155 0
-942 -34 -5 -23 0
-942 -35 209 0
-942 -35 -108 0
-942 -35 -132 0
-942 -35 -156 0
-942 -35 -5 -24 0
-942 -36 210 0
-942 -36 -109 0
-942 -36 -133 0
-942 -36 -157 0
-942 -36 -5 -25 0
-942 -37 0
-943 38 0
-943 191 0
-943 -18 0
-943 -19 0
-943 -20 0
-943 -34 208 0
-943 -34 -111 0
-943 -34 -135 0
-943 -34 -159 0
-943 -34 -6 -23 0
-943 -35 209 0
-943 -35 -112 0
-943 -35 -136 0
-943 -35 -160 0
-943 -35 -6 -24 0
-943 -36 210 0
-943 -36 -113 0
-943 -36 -137 0
-943 -36 -161 0
-943 -36 -6 -25 0
-943 -37 0
-944 38 0
-944 186 0
-944 207 0
-944 -90 0
-944 -114 0
-944 -138 0
-944 -1 -22 0
-945 38 0
-945 187 0
-945 207 0
-945 -94 0
-945 -118 0
-945 -142 0
-945 -2 -22 0
-946 38 0
-946 188 0
-946 207 0
-946 -98 0
-946 -122 0
-946 -146 0
-946 -3 -22 0
-947 38 0
-947 189 0
-947 207 0
-947 -102 0
-947 -126 0
-947 -150 0
-947 -4 -22 0
-948 38 0
-948 190 0
-948 207 0
-948 -106 0
-948 -130 0
-948 -154 0
-948 -5 -22 0
-949 38 0
-949 191 0
-949 207 0
-949 -110 0
-949 -134 0
-949 -158 0
-949 -6 -22 0
-950 39 0
-950 192 0
-950 -2 0
-950 -3 0
-950 -4 0
-950 -5 0
-950 -6 0
-950 -22 212 0
-950 -22 -67 0
-950 -22 -115 0
-950 -22 -139 0
-950 -22 -7 -27 0
-950 -23 213 0
-950 -23 -68 0
-950 -23 -116 0
-950 -23 -140 0
-950 -23 -7 -28 0
-950 -24 214 0
-950 -24 -69 0
-950 -24 -117 0
-950 -24 -141 0
-950 -24 -7 -29 0
-950 -25 0
-951 39 0
-951 193 0
-951 -1 0
-951 -3 0
-951 -4 0
-951 -5 0
-951 -6 0
-951 -22 212 0
-951 -22 -71 0
-951 -22 -119 0
-951 -22 -143 0
-951 -22 -8 -27 0
-951 -23 213 0
-951 -23 -72 0
-951 -23 -120 0
-951 -23 -144 0
-951 -23 -8 -28 0
-951 -24 214 0
-951 -24 -73 0
-951 -24 -121 0
-951 -24 -145 0
-951 -24 -8 -29 0
-951 -25 0
-952 39 0
-952 194 0
-952 -1 0
-952 -2 0
-952 -4 0
-952 -5 0
-952 -6 0
-952 -22 212 0
-952 -22 -75 0
-952 -22 -123 0
-952 -22 -147 0
-952 -22 -9 -27 0
-952 -23 213 0
-952 -23 -76 0
-952 -23 -124 0
-952 -23 -148 0
-952 -23 -9 -28 0
-952 -24 214 0
-952 -24 -77 0
-952 -24 -125 0
-952 -24 -149 0
-952 -24 -9 -29 0
-952 -25 0
-953 39 0
-953 195 0
-953 -1 0
-953 -2 0
-953 -3 0
-953 -5 0
-953 -6 0
-953 -22 212 0
-953 -22 -79 0
-953 -22 -127 0
-953 -22 -151 0
-953 -22 -10 -27 0
-953 -23 213 0
-953 -23 -80 0
-953 -23 -128 0
-953 -23 -152 0
-953 -23 -10 -28 0
-953 -24 214 0
-953 -24 -81 0
-953 -24 -129 0
-953 -24 -153 0
-953 -24 -10 -29 0
-953 -25 0
-954 39 0
-954 196 0
-954 -1 0
-954 -2 0
-954 -3 0
-954 -4 0
-954 -6 0
-954 -22 212 0
-954 -22 -83 0
-954 -22 -131 0
-954 -22 -155 0
-954 -22 -11 -27 0
-954 -23 213 0
-954 -23 -84 0
-954 -23 -132 0
-954 -23 -156 0
-954 -23 -11 -28 0
-954 -24 214 0
-954 -24 -85 0
-954 -24 -133 0
-954 -24 -157 0
-954 -24 -11 -29 0
-954 -25 0
-955 39 0
-955 197 0
-955 -1 0
-955 -2 0
-955 -3 0
-955 -4 0
-955 -5 0
-955 -22 212 0
-955 -22 -87 0
-955 -22 -135 0
-955 -22 -159 0
-955 -22 -12 -27 0
-955 -23 213 0
-955 -23 -88 0
-955 -23 -136 0
-955 -23 -160 0
-955 -23 -12 -28 0
-955 -24 214 0
-955 -24 -89 0
-955 -24 -137 0
-955 -24 -161 0
-955 -24 -12 -29 0
-955 -25 0
-956 39 0
-956 192 0
-956 -14 0
-956 -15 0
-956 -16 0
-956 -17 0
-956 -30 212 0
-956 -30 -67 0
-956 -30 -115 0
-956 -30 -139 0
-956 -30 -7 -27 0
-956 -31 213 0
-956 -31 -68 0
-956 -31 -116 0
-956 -31 -140 0
-956 -31 -7 -28 0
-956 -32 214 0
-956 -32 -69 0
-956 -32 -117 0
-956 -32 -141 0
-956 -32 -7 -29 0
-956 -33 0
-957 39 0
-957 193 0
-957 -15 0
-957 -16 0
-957 -17 0
-957 -30 212 0
-957 -30 -71 0
-957 -30 -119 0
-957 -30 -143 0
-957 -30 -8 -27 0
-957 -31 213 0
-957 -31 -72 0
-957 -31 -120 0
-957 -31 -144 0
-957 -31 -8 -28 0
-957 -32 214 0
-957 -32 -73 0
-957 -32 -121 0
-957 -32 -145 0
-957 -32 -8 -29 0
-957 -33 0
-958 39 0
-958 194 0
-958 -13 0
-958 -16 0
-958 -17 0
-958 -30 212 0
-958 -30 -75 0
-958 -30 -123 0
-958 -30 -147 0
-958 -30 -9 -27 0
-958 -31 213 0
-958 -31 -76 0
-958 -31 -124 0
-958 -31 -148 0
-958 -31 -9 -28 0
-958 -32 214 0
-958 -32 -77 0
-958 -32 -125 0
-958 -32 -149 0
-958 -32 -9 -29 0
-958 -33 0
-959 39 0
-959 195 0
-959 -13 0
-959 -14 0
-959 -17 0
-959 -30 212 0
-959 -30 -79 0
-959 -30 -127 0
-959 -30 -151 0
-959 -30 -10 -27 0
-959 -31 213 0
-959 -31 -80 0
-959 -31 -128 0
-959 -31 -152 0
-959 -31 -10 -28 0
-959 -32 214 0
-959 -32 -81 0
-959 -32 -129 0
-959 -32 -153 0
-959 -32 -10 -29 0
-959 -33 0
-960 39 0
-960 196 0
-960 -13 0
-960 -14 0
-960 -15 0
-960 -30 212 0
-960 -30 -83 0
-960 -30 -131 0
-960 -30 -155 0
-960 -30 -11 -27 0
-960 -31 213 0
-960 -31 -84 0
-960 -31 -132 0
-960 -31 -156 0
-960 -31 -11 -28 0
-960 -32 214 0
-960 -32 -85 0
-960 -32 -133 0
-960 -32 -157 0
-960 -32 -11 -29 0
-960 -33 0
-961 39 0
-961 197 0
-961 -13 0
-961 -14 0
-961 -15 0
-961 -16 0
-961 -30 212 0
-961 -30 -87 0
-961 -30 -135 0
-961 -30 -159 0
-961 -30 -12 -27 0
-961 -31 213 0
-961 -31 -88 0
-961 -31 -136 0
-961 -31 -160 0
-961 -31 -12 -28 0
-961 -32 214 0
-961 -32 -89 0
-961 -32 -137 0
-961 -32 -161 0
-961 -32 -12 -29 0
-961 -33 0
-962 39 0
-962 192 0
-962 -19 0
-962 -20 0
-962 -21 0
-962 -34 212 0
-962 -34 -67 0
-962 -34 -115 0
-962 -34 -139 0
-962 -34 -7 -27 0
-962 -35 213 0
-962 -35 -68 0
-962 -35 -116 0
-962 -35 -140 0
-962 -35 -7 -28 0
-962 -36 214 0
-962 -36 -69 0
-962 -36 -117 0
-962 -36 -141 0
-962 -36 -7 -29 0
-962 -37 0
-963 39 0
-963 193 0
-963 -20 0
-963 -21 0
-963 -34 212 0
-963 -34 -71 0
-963 -34 -119 0
-963 -34 -143 0
-963 -34 -8 -27 0
-963 -35 213 0
-963 -35 -72 0
-963 -35 -120 0
-963 -35 -144 0
-963 -35 -8 -28 0
-963 -36 214 0
-963 -36 -73 0
-963 -36 -121 0
-963 -36 -145 0
-963 -36 -8 -29 0
-963 -37 0
-964 39 0
-964 194 0
-964 -21 0
-964 -34 212 0
-964 -34 -75 0
-964 -34 -123 0
-964 -34 -147 0
-964 -34 -9 -27 0
-964 -35 213 0
-964 -35 -76 0
-964 -35 -124 0
-964 -35 -148 0
-964 -35 -9 -28 0
-964 -36 214 0
-964 -36 -77 0
-964 -36 -125 0
-964 -36 -149 0
-964 -36 -9 -29 0
-964 -37 0
-965 39 0
-965 195 0
-965 -18 0
-965 -34 212 0
-965 -34 -79 0
-965 -34 -127 0
-965 -34 -151 0
-965 -34 -10 -27 0
-965 -35 213 0
-965 -35 -80 0
-965 -35 -128 0
-965 -35 -152 0
-965 -35 -10 -28 0
-965 -36 214 0
-965 -36 -81 0
-965 -36 -129 0
-965 -36 -153 0
-965 -36 -10 -29 0
-965 -37 0
-966 39 0
-966 196 0
-966 -18 0
-966 -19 0
-966 -34 212 0
-966 -34 -83 0
-966 -34 -131 0
-966 -34 -155 0
-966 -34 -11 -27 0
-966 -35 213 0
-966 -35 -84 0
-966 -35 -132 0
-966 -35 -156 0
-966 -35 -11 -28 0
-966 -36 214 0
-966 -36 -85 0
-966 -36 -133 0
-966 -36 -157 0
-966 -36 -11 -29 0
-966 -37 0
-967 39 0
-967 197 0
-967 -18 0
-967 -19 0
-967 -20 0
-967 -34 212 0
-967 -34 -87 0
-967 -34 -135 0
-967 -34 -159 0
-967 -34 -12 -27 0
-967 -35 213 0
-967 -35 -88 0
-967 -35 -136 0
-967 -35 -160 0
-967 -35 -12 -28 0
-967 -36 214 0
-967 -36 -89 0
-967 -36 -137 0
-967 -36 -161 0
-967 -36 -12 -29 0
-967 -37 0
-968 39 0
-968 192 0
-968 211 0
-968 -66 0
-968 -114 0
-968 -138 0
-968 -7 -26 0
-969 39 0
-969 193 0
-969 211 0
-969 -70 0
-969 -118 0
-969 -142 0
-969 -8 -26 0
-970 39 0
-970 194 0
-970 211 0
-970 -74 0
-970 -122 0
-970 -146 0
-970 -9 -26 0
-971 39 0
-971 195 0
-971 211 0
-971 -78 0
-971 -126 0
-971 -150 0
-971 -10 -26 0
-972 39 0
-972 196 0
-972 211 0
-972 -82 0
-972 -130 0
-972 -154 0
-972 -11 -26 0
-973 39 0
-973 197 0
-973 211 0
-973 -86 0
-973 -134 0
-973 -158 0
-973 -12 -26 0
-974 40 0
-974 198 0
-974 -3 0
-974 -4 0
-974 -5 0
-974 -6 0
-974 -22 216 0
-974 -22 -67 0
-974 -22 -71 0
-974 -22 -91 0
-974 -22 -95 0
-974 -22 -139 0
-974 -22 -143 0
-974 -22 -13 -31 0
-974 -23 217 0
-974 -23 -68 0
-974 -23 -72 0
-974 -23 -92 0
-974 -23 -96 0
-974 -23 -140 0
-974 -23 -144 0
-974 -23 -13 -32 0
-974 -24 218 0
-974 -24 -69 0
-974 -24 -73 0
-974 -24 -93 0
-974 -24 -97 0
-974 -24 -141 0
-974 -24 -145 0
-974 -24 -13 -33 0
-974 -25 0
-975 40 0
-975 199 0
-975 -1 0
-975 -4 0
-975 -5 0
-975 -6 0
-975 -22 216 0
-975 -22 -71 0
-975 -22 -75 0
-975 -22 -95 0
-975 -22 -99 0
-975 -22 -143 0
-975 -22 -147 0
-975 -22 -14 -31 0
-975 -23 217 0
-975 -23 -72 0
-975 -23 -76 0
-975 -23 -96 0
-975 -23 -100 0
-975 -23 -144 0
-975 -23 -148 0
-975 -23 -14 -32 0
-975 -24 218 0
-975 -24 -73 0
-975 -24 -77 0
-975 -24 -97 0
-975 -24 -101 0
-975 -24 -145 0
-975 -24 -149 0
-975 -24 -14 -33 0
-975 -25 0
-976 40 0
-976 200 0
-976 -1 0
-976 -2 0
-976 -5 0
-976 -6 0
-976 -22 216 0
-976 -22 -75 0
-976 -22 -79 0
-976 -22 -99 0
-976 -22 -103 0
-976 -22 -147 0
-976 -22 -151 0
-976 -22 -15 -31 0
-976 -23 217 0
-976 -23 -76 0
-976 -23 -80 0
-976 -23 -100 0
-976 -23 -104 0
-976 -23 -148 0
-976 -23 -152 0
-976 -23 -15 -32 0
-976 -24 218 0
-976 -24 -77 0
-976 -24 -81 0
-976 -24 -101 0
-976 -24 -105 0
-976 -24 -149 0
-976 -24 -153 0
-976 -24 -15 -33 0
-976 -25 0
-977 40 0
-977 201 0
-977 -1 0
-977 -2 0
-977 -3 0
-977 -6 0
-977 -22 216 0
-977 -22 -79 0
-977 -22 -83 0
-977 -22 -103 0
-977 -22 -107 0
-977 -22 -151 0
-977 -22 -155 0
-977 -22 -16 -31 0
-977 -23 217 0
-977 -23 -80 0
-977 -23 -84 0
-977 -23 -104 0
-977 -23 -108 0
-977 -23 -152 0
-977 -23 -156 0
-977 -23 -16 -32 0
-977 -24 218 0
-977 -24 -81 0
-977 -24 -85 0
-977 -24 -105 0
-977 -24 -109 0
-977 -24 -153 0
-977 -24 -157 0
-977 -24 -16 -33 0
-977 -25 0
-978 40 0
-978 202 0
-978 -1 0
-978 -2 0
-978 -3 0
-978 -4 0
-978 -22 216 0
-978 -22 -83 0
-978 -22 -87 0
-978 -22 -107 0
-978 -22 -111 0
-978 -22 -155 0
-978 -22 -159 0
-978 -22 -17 -31 0
-978 -23 217 0
-978 -23 -84 0
-978 -23 -88 0
-978 -23 -108 0
-978 -23 -112 0
-978 -23 -156 0
-978 -23 -160 0
-978 -23 -17 -32 0
-978 -24 218 0
-978 -24 -85 0
-978 -24 -89 0
-978 -24 -109 0
-978 -24 -113 0
-978 -24 -157 0
-978 -24 -161 0
-978 -24 -17 -33 0
-978 -25 0
-979 40 0
-979 198 0
-979 -9 0
-979 -10 0
-979 -11 0
-979 -12 0
-979 -26 216 0
-979 -26 -67 0
-979 -26 -71 0
-979 -26 -91 0
-979 -26 -95 0
-979 -26 -139 0
-979 -26 -143 0
-979 -26 -13 -31 0
-979 -27 217 0
-979 -27 -68 0
-979 -27 -72 0
-979 -27 -92 0
-979 -27 -96 0
-979 -27 -140 0
-979 -27 -144 0
-979 -27 -13 -32 0
-979 -28 218 0
-979 -28 -69 0
-979 -28 -73 0
-979 -28 -93 0
-979 -28 -97 0
-979 -28 -141 0
-979 -28 -145 0
-979 -28 -13 -33 0
-979 -29 0
-980 40 0
-980 199 0
-980 -7 0
-980 -10 0
-980 -11 0
-980 -12 0
-980 -26 216 0
-980 -26 -71 0
-980 -26 -75 0
-980 -26 -95 0
-980 -26 -99 0
-980 -26 -143 0
-980 -26 -147 0
-980 -26 -14 -31 0
-980 -27 217 0
-980 -27 -72 0
-980 -27 -76 0
-980 -27 -96 0
-980 -27 -100 0
-980 -27 -144 0
-980 -27 -148 0
-980 -27 -14 -32 0
-980 -28 218 0
-980 -28 -73 0
-980 -28 -77 0
-980 -28 -97 0
-980 -28 -101 0
-980 -28 -145 0
-980 -28 -149 0
-980 -28 -14 -33 0
-980 -29 0
-981 40 0
-981 200 0
-981 -7 0
-981 -8 0
-981 -11 0
-981 -12 0
-981 -26 216 0
-981 -26 -75 0
-981 -26 -79 0
-981 -26 -99 0
-981 -26 -103 0
-981 -26 -147 0
-981 -26 -151 0
-981 -26 -15 -31 0
-981 -27 217 0
-981 -27 -76 0
-981 -27 -80 0
-981 -27 -100 0
-981 -27 -104 0
-981 -27 -148 0
-981 -27 -152 0
-981 -27 -15 -32 0
-981 -28 218 0
-981 -28 -77 0
-981 -28 -81 0
-981 -28 -101 0
-981 -28 -105 0
-981 -28 -149 0
-981 -28 -153 0
-981 -28 -15 -33 0
-981 -29 0
-982 40 0
-982 201 0
-982 -7 0
-982 -8 0
-982 -9 0
-982 -12 0
-982 -26 216 0
-982 -26 -79 0
-982 -26 -83 0
-982 -26 -103 0
-982 -26 -107 0
-982 -26 -151 0
-982 -26 -155 0
-982 -26 -16 -31 0
-982 -27 217 0
-982 -27 -80 0
-982 -27 -84 0
-982 -27 -104 0
-982 -27 -108 0
-982 -27 -152 0
-982 -27 -156 0
-982 -27 -16 -32 0
-982 -28 218 0
-982 -28 -81 0
-982 -28 -85 0
-982 -28 -105 0
-982 -28 -109 0
-982 -28 -153 0
-982 -28 -157 0
-982 -28 -16 -33 0
-982 -29 0
-983 40 0
-983 202 0
-983 -7 0
-983 -8 0
-983 -9 0
-983 -10 0
-983 -26 216 0
-983 -26 -83 0
-983 -26 -87 0
-983 -26 -107 0
-983 -26 -111 0
-983 -26 -155 0
-983 -26 -159 0
-983 -26 -17 -31 0
-983 -27 217 0
-983 -27 -84 0
-983 -27 -88 0
-983 -27 -108 0
-983 -27 -112 0
-983 -27 -156 0
-983 -27 -160 0
-983 -27 -17 -32 0
-983 -28 218 0
-983 -28 -85 0
-983 -28 -89 0
-983 -28 -109 0
-983 -28 -113 0
-983 -28 -157 0
-983 -28 -161 0
-983 -28 -17 -33 0
-983 -29 0
-984 40 0
-984 198 0
-984 -20 0
-984 -21 0
-984 -34 216 0
-984 -34 -67 0
-984 -34 -71 0
-984 -34 -91 0
-984 -34 -95 0
-984 -34 -139 0
-984 -34 -143 0
-984 -34 -13 -31 0
-984 -35 217 0
-984 -35 -68 0
-984 -35 -72 0
-984 -35 -92 0
-984 -35 -96 0
-984 -35 -140 0
-984 -35 -144 0
-984 -35 -13 -32 0
-984 -36 218 0
-984 -36 -69 0
-984 -36 -73 0
-984 -36 -93 0
-984 -36 -97 0
-984 -36 -141 0
-984 -36 -145 0
-984 -36 -13 -33 0
-984 -37 0
-985 40 0
-985 199 0
-985 -21 0
-985 -34 216 0
-985 -34 -71 0
-985 -34 -75 0
-985 -34 -95 0
-985 -34 -99 0
-985 -34 -143 0
-985 -34 -147 0
-985 -34 -14 -31 0
-985 -35 217 0
-985 -35 -72 0
-985 -35 -76 0
-985 -35 -96 0
-985 -35 -100 0
-985 -35 -144 0
-985 -35 -148 0
-985 -35 -14 -32 0
-985 -36 218 0
-985 -36 -73 0
-985 -36 -77 0
-985 -36 -97 0
-985 -36 -101 0
-985 -36 -145 0
-985 -36 -149 0
-985 -36 -14 -33 0
-985 -37 0
-986 40 0
-986 200 0
-986 -34 216 0
-986 -34 -75 0
-986 -34 -79 0
-986 -34 -99 0
-986 -34 -103 0
-986 -34 -147 0
-986 -34 -151 0
-986 -34 -15 -31 0
-986 -35 217 0
-986 -35 -76 0
-986 -35 -80 0
-986 -35 -100 0
-986 -35 -104 0
-986 -35 -148 0
-986 -35 -152 0
-986 -35 -15 -32 0
-986 -36 218 0
-986 -36 -77 0
-986 -36 -81 0
-986 -36 -101 0
-986 -36 -105 0
-986 -36 -149 0
-986 -36 -153 0
-986 -36 -15 -33 0
-986 -37 0
-987 40 0
-987 201 0
-987 -18 0
-987 -34 216 0
-987 -34 -79 0
-987 -34 -83 0
-987 -34 -103 0
-987 -34 -107 0
-987 -34 -151 0
-987 -34 -155 0
-987 -34 -16 -31 0
-987 -35 217 0
-987 -35 -80 0
-987 -35 -84 0
-987 -35 -104 0
-987 -35 -108 0
-987 -35 -152 0
-987 -35 -156 0
-987 -35 -16 -32 0
-987 -36 218 0
-987 -36 -81 0
-987 -36 -85 0
-987 -36 -105 0
-987 -36 -109 0
-987 -36 -153 0
-987 -36 -157 0
-987 -36 -16 -33 0
-987 -37 0
-988 40 0
-988 202 0
-988 -18 0
-988 -19 0
-988 -34 216 0
-988 -34 -83 0
-988 -34 -87 0
-988 -34 -107 0
-988 -34 -111 0
-988 -34 -155 0
-988 -34 -159 0
-988 -34 -17 -31 0
-988 -35 217 0
-988 -35 -84 0
-988 -35 -88 0
-988 -35 -108 0
-988 -35 -112 0
-988 -35 -156 0
-988 -35 -160 0
-988 -35 -17 -32 0
-988 -36 218 0
-988 -36 -85 0
-988 -36 -89 0
-988 -36 -109 0
-988 -36 -113 0
-988 -36 -157 0
-988 -36 -161 0
-988 -36 -17 -33 0
-988 -37 0
-989 40 0
-989 198 0
-989 215 0
-989 -66 0
-989 -70 0
-989 -90 0
-989 -94 0
-989 -138 0
-989 -142 0
-989 -13 -30 0
-990 40 0
-990 199 0
-990 215 0
-990 -70 0
-990 -74 0
-990 -94 0
-990 -98 0
-990 -142 0
-990 -146 0
-990 -14 -30 0
-991 40 0
-991 200 0
-991 215 0
-991 -74 0
-991 -78 0
-991 -98 0
-991 -102 0
-991 -146 0
-991 -150 0
-991 -15 -30 0
-992 40 0
-992 201 0
-992 215 0
-992 -78 0
-992 -82 0
-992 -102 0
-992 -106 0
-992 -150 0
-992 -154 0
-992 -16 -30 0
-993 40 0
-993 202 0
-993 215 0
-993 -82 0
-993 -86 0
-993 -106 0
-993 -110 0
-993 -154 0
-993 -158 0
-993 -17 -30 0
-994 41 0
-994 203 0
-994 -4 0
-994 -5 0
-994 -6 0
-994 -22 220 0
-994 -22 -67 0
-994 -22 -71 0
-994 -22 -75 0
-994 -22 -91 0
-994 -22 -95 0
-994 -22 -99 0
-994 -22 -115 0
-994 -22 -119 0
-994 -22 -123 0
-994 -22 -18 -35 0
-994 -23 221 0
-994 -23 -68 0
-994 -23 -72 0
-994 -23 -76 0
-994 -23 -92 0
-994 -23 -96 0
-994 -23 -100 0
-994 -23 -116 0
-994 -23 -120 0
-994 -23 -124 0
-994 -23 -18 -36 0
-994 -24 222 0
-994 -24 -69 0
-994 -24 -73 0
-994 -24 -77 0
-994 -24 -93 0
-994 -24 -97 0
-994 -24 -101 0
-994 -24 -117 0
-994 -24 -121 0
-994 -24 -125 0
-994 -24 -18 -37 0
-994 -25 0
-995 41 0
-995 204 0
-995 -1 0
-995 -5 0
-995 -6 0
-995 -22 220 0
-995 -22 -71 0
-995 -22 -75 0
-995 -22 -79 0
-995 -22 -95 0
-995 -22 -99 0
-995 -22 -103 0
-995 -22 -119 0
-995 -22 -123 0
-995 -22 -127 0
-995 -22 -19 -35 0
-995 -23 221 0
-995 -23 -72 0
-995 -23 -76 0
-995 -23 -80 0
-995 -23 -96 0
-995 -23 -100 0
-995 -23 -104 0
-995 -23 -120 0
-995 -23 -124 0
-995 -23 -128 0
-995 -23 -19 -36 0
-995 -24 222 0
-995 -24 -73 0
-995 -24 -77 0
-995 -24 -81 0
-995 -24 -97 0
-995 -24 -101 0
-995 -24 -105 0
-995 -24 -121 0
-995 -24 -125 0
-995 -24 -129 0
-995 -24 -19 -37 0
-995 -25 0
-996 41 0
-996 205 0
-996 -1 0
-996 -2 0
-996 -6 0
-996 -22 220 0
-996 -22 -75 0
-996 -22 -79 0
-996 -22 -83 0
-996 -22 -99 0
-996 -22 -103 0
-996 -22 -107 0
-996 -22 -123 0
-996 -22 -127 0
-996 -22 -131 0
-996 -22 -20 -35 0
-996 -23 221 0
-996 -23 -76 0
-996 -23 -80 0
-996 -23 -84 0
-996 -23 -100 0
-996 -23 -104 0
-996 -23 -108 0
-996 -23 -124 0
-996 -23 -128 0
-996 -23 -132 0
-996 -23 -20 -36 0
-996 -24 222 0
-996 -24 -77 0
-996 -24 -81 0
-996 -24 -85 0
-996 -24 -101 0
-996 -24 -105 0
-996 -24 -109 0
-996 -24 -125 0
-996 -24 -129 0
-996 -24 -133 0
-996 -24 -20 -37 0
-996 -25 0
-997 41 0
-997 206 0
-997 -1 0
-997 -2 0
-997 -3 0
-997 -22 220 0
-997 -22 -79 0
-997 -22 -83 0
-997 -22 -87 0
-997 -22 -103 0
-997 -22 -107 0
-997 -22 -111 0
-997 -22 -127 0
-997 -22 -131 0
-997 -22 -135 0
-997 -22 -21 -35 0
-997 -23 221 0
-997 -23 -80 0
-997 -23 -84 0
-997 -23 -88 0
-997 -23 -104 0
-997 -23 -108 0
-997 -23 -112 0
-997 -23 -128 0
-997 -23 -132 0
-997 -23 -136 0
-997 -23 -21 -36 0
-997 -24 222 0
-997 -24 -81 0
-997 -24 -85 0
-997 -24 -89 0
-997 -24 -105 0
-997 -24 -109 0
-997 -24 -113 0
-997 -24 -129 0
-997 -24 -133 0
-997 -24 -137 0
-997 -24 -21 -37 0
-997 -25 0
-998 41 0
-998 203 0
-998 -10 0
-998 -11 0
-998 -12 0
-998 -26 220 0
-998 -26 -67 0
-998 -26 -71 0
-998 -26 -75 0
-998 -26 -91 0
-998 -26 -95 0
-998 -26 -99 0
-998 -26 -115 0
-998 -26 -119 0
-998 -26 -123 0
-998 -26 -18 -35 0
-998 -27 221 0
-998 -27 -68 0
-998 -27 -72 0
-998 -27 -76 0
-998 -27 -92 0
-998 -27 -96 0
-998 -27 -100 0
-998 -27 -116 0
-998 -27 -120 0
-998 -27 -124 0
-998 -27 -18 -36 0
-998 -28 222 0
-998 -28 -69 0
-998 -28 -73 0
-998 -28 -77 0
-998 -28 -93 0
-998 -28 -97 0
-998 -28 -101 0
-998 -28 -117 0
-998 -28 -121 0
-998 -28 -125 0
-998 -28 -18 -37 0
-998 -29 0
-999 41 0
-999 204 0
-999 -7 0
-999 -11 0
-999 -12 0
-999 -26 220 0
-999 -26 -71 0
-999 -26 -75 0
-999 -26 -79 0
-999 -26 -95 0
-999 -26 -99 0
-999 -26 -103 0
-999 -26 -119 0
-999 -26 -123 0
-999 -26 -127 0
-999 -26 -19 -35 0
-999 -27 221 0
-999 -27 -72 0
-999 -27 -76 0
-999 -27 -80 0
-999 -27 -96 0
-999 -27 -100 0
-999 -27 -104 0
-999 -27 -120 0
-999 -27 -124 0
-999 -27 -128 0
-999 -27 -19 -36 0
-999 -28 222 0
-999 -28 -73 0
-999 -28 -77 0
-999 -28 -81 0
-999 -28 -97 0
-999 -28 -101 0
-999 -28 -105 0
-999 -28 -121 0
-999 -28 -125 0
-999 -28 -129 0
-999 -28 -19 -37 0
-999 -29 0
-1000 41 0
-1000 205 0
-1000 -7 0
-1000 -8 0
-1000 -12 0
-1000 -26 220 0
-1000 -26 -75 0
-1000 -26 -79 0
-1000 -26 -83 0
-1000 -26 -99 0
-1000 -26 -103 0
-1000 -26 -107 0
-1000 -26 -123 0
-1000 -26 -127 0
-1000 -26 -131 0
-1000 -26 -20 -35 0
-1000 -27 221 0
-1000 -27 -76 0
-1000 -27 -80 0
-1000 -27 -84 0
-1000 -27 -100 0
-1000 -27 -104 0
-1000 -27 -108 0
-1000 -27 -124 0
-1000 -27 -128 0
-1000 -27 -132 0
-1000 -27 -20 -36 0
-1000 -28 222 0
-1000 -28 -77 0
-1000 -28 -81 0
-1000 -28 -85 0
-1000 -28 -101 0
-1000 -28 -105 0
-1000 -28 -109 0
-1000 -28 -125 0
-1000 -28 -129 0
-1000 -28 -133 0
-1000 -28 -20 -37 0
-1000 -29 0
-1001 41 0
-1001 206 0
-1001 -7 0
-1001 -8 0
-1001 -9 0
-1001 -26 220 0
-1001 -26 -79 0
-1001 -26 -83 0
-1001 -26 -87 0
-1001 -26 -103 0
-1001 -26 -107 0
-1001 -26 -111 0
-1001 -26 -127 0
-1001 -26 -131 0
-1001 -26 -135 0
-1001 -26 -21 -35 0
-1001 -27 221 0
-1001 -27 -80 0
-1001 -27 -84 0
-1001 -27 -88 0
-1001 -27 -104 0
-1001 -27 -108 0
-1001 -27 -112 0
-1001 -27 -128 0
-1001 -27 -132 0
-1001 -27 -136 0
-1001 -27 -21 -36 0
-1001 -28 222 0
-1001 -28 -81 0
-1001 -28 -85 0
-1001 -28 -89 0
-1001 -28 -105 0
-1001 -28 -109 0
-1001 -28 -113 0
-1001 -28 -129 0
-1001 -28 -133 0
-1001 -28 -137 0
-1001 -28 -21 -37 0
-1001 -29 0
-1002 41 0
-1002 203 0
-1002 -16 0
-1002 -17 0
-1002 -30 220 0
-1002 -30 -67 0
-1002 -30 -71 0
-1002 -30 -75 0
-1002 -30 -91 0
-1002 -30 -95 0
-1002 -30 -99 0
-1002 -30 -115 0
-1002 -30 -119 0
-1002 -30 -123 0
-1002 -30 -18 -35 0
-1002 -31 221 0
-1002 -31 -68 0
-1002 -31 -72 0
-1002 -31 -76 0
-1002 -31 -92 0
-1002 -31 -96 0
-1002 -31 -100 0
-1002 -31 -116 0
-1002 -31 -120 0
-1002 -31 -124 0
-1002 -31 -18 -36 0
-1002 -32 222 0
-1002 -32 -69 0
-1002 -32 -73 0
-1002 -32 -77 0
-1002 -32 -93 0
-1002 -32 -97 0
-1002 -32 -101 0
-1002 -32 -117 0
-1002 -32 -121 0
-1002 -32 -125 0
-1002 -32 -18 -37 0
-1002 -33 0
-1003 41 0
-1003 204 0
-1003 -17 0
-1003 -30 220 0
-1003 -30 -71 0
-1003 -30 -75 0
-1003 -30 -79 0
-1003 -30 -95 0
-1003 -30 -99 0
-1003 -30 -103 0
-1003 -30 -119 0
-1003 -30 -123 0
-1003 -30 -127 0
-1003 -30 -19 -35 0
-1003 -31 221 0
-1003 -31 -72 0
-1003 -31 -76 0
-1003 -31 -80 0
-1003 -31 -96 0
-1003 -31 -100 0
-1003 -31 -104 0
-1003 -31 -120 0
-1003 -31 -124 0
-1003 -31 -128 0
-1003 -31 -19 -36 0
-1003 -32 222 0
-1003 -32 -73 0
-1003 -32 -77 0
-1003 -32 -81 0
-1003 -32 -97 0
-1003 -32 -101 0
-1003 -32 -105 0
-1003 -32 -121 0
-1003 -32 -125 0
-1003 -32 -129 0
-1003 -32 -19 -37 0
-1003 -33 0
-1004 41 0
-1004 205 0
-1004 -13 0
-1004 -30 220 0
-1004 -30 -75 0
-1004 -30 -79 0
-1004 -30 -83 0
-1004 -30 -99 0
-1004 -30 -103 0
-1004 -30 -107 0
-1004 -30 -123 0
-1004 -30 -127 0
-1004 -30 -131 0
-1004 -30 -20 -35 0
-1004 -31 221 0
-1004 -31 -76 0
-1004 -31 -80 0
-1004 -31 -84 0
-1004 -31 -100 0
-1004 -31 -104 0
-1004 -31 -108 0
-1004 -31 -124 0
-1004 -31 -128 0
-1004 -31 -132 0
-1004 -31 -20 -36 0
-1004 -32 222 0
-1004 -32 -77 0
-1004 -32 -81 0
-1004 -32 -85 0
-1004 -32 -101 0
-1004 -32 -105 0
-1004 -32 -109 0
-1004 -32 -125 0
-1004 -32 -129 0
-1004 -32 -133 0
-1004 -32 -20 -37 0
-1004 -33 0
-1005 41 0
-1005 206 0
-1005 -13 0
-1005 -14 0
-1005 -30 220 0
-1005 -30 -79 0
-1005 -30 -83 0
-1005 -30 -87 0
-1005 -30 -103 0
-1005 -30 -107 0
-1005 -30 -111 0
-1005 -30 -127 0
-1005 -30 -131 0
-1005 -30 -135 0
-1005 -30 -21 -35 0
-1005 -31 221 0
-1005 -31 -80 0
-1005 -31 -84 0
-1005 -31 -88 0
-1005 -31 -104 0
-1005 -31 -108 0
-1005 -31 -112 0
-1005 -31 -128 0
-1005 -31 -132 0
-1005 -31 -136 0
-1005 -31 -21 -36 0
-1005 -32 222 0
-1005 -32 -81 0
-1005 -32 -85 0
-1005 -32 -89 0
-1005 -32 -105 0
-1005 -32 -109 0
-1005 -32 -113 0
-1005 -32 -129 0
-1005 -32 -133 0
-1005 -32 -137 0
-1005 -32 -21 -37 0
-1005 -33 0
-1006 41 0
-1006 203 0
-1006 219 0
-1006 -66 0
-1006 -70 0
-1006 -74 0
-1006 -90 0
-1006 -94 0
-1006 -98 0
-1006 -114 0
-1006 -118 0
-1006 -122 0
-1006 -18 -34 0
-1007 41 0
-1007 204 0
-1007 219 0
-1007 -70 0
-1007 -74 0
-1007 -78 0
-1007 -94 0
-1007 -98 0
-1007 -102 0
-1007 -118 0
-1007 -122 0
-1007 -126 0
-1007 -19 -34 0
-1008 41 0
-1008 205 0
-1008 219 0
-1008 -74 0
-1008 -78 0
-1008 -82 0
-1008 -98 0
-1008 -102 0
-1008 -106 0
-1008 -122 0
-1008 -126 0
-1008 -130 0
-1008 -20 -34 0
-1009 41 0
-1009 206 0
-1009 219 0
-1009 -78 0
-1009 -82 0
-1009 -86 0
-1009 -102 0
-1009 -106 0
-1009 -110 0
-1009 -126 0
-1009 -130 0
-1009 -134 0
-1009 -21 -34 0
-1 186 926 927 928 929 930 931 932 933 934 935 936 937 938 939 940 941 942 943 944 945 946 947 948 949 0
-2 187 926 927 928 929 930 931 932 933 934 935 936 937 938 939 940 941 942 943 944 945 946 947 948 949 0
-3 188 926 927 928 929 930 931 932 933 934 935 936 937 938 939 940 941 942 943 944 945 946 947 948 949 0
-4 189 926 927 928 929 930 931 932 933 934 935 936 937 938 939 940 941 942 943 944 945 946 947 948 949 0
-5 190 926 927 928 929 930 931 932 933 934 935 936 937 938 939 940 941 942 943 944 945 946 947 948 949 0
-6 191 926 927 928 929 930 931 932 933 934 935 936 937 938 939 940 941 942 943 944 945 946 947 948 949 0
-22 207 926 927 928 929 930 931 932 933 934 935 936 937 938 939 940 941 942 943 944 945 946 947 948 949 0
-23 208 926 927 928 929 930 931 932 933 934 935 936 937 938 939 940 941 942 943 944 945 946 947 948 949 0
-24 209 926 927 928 929 930 931 932 933 934 935 936 937 938 939 940 941 942 943 944 945 946 947 948 949 0
-25 210 926 927 928 929 930 931 932 933 934 935 936 937 938 939 940 941 942 943 944 945 946 947 948 949 0
-7 192 950 951 952 953 954 955 956 957 958 959 960 961 962 963 964 965 966 967 968 969 970 971 972 973 0
-8 193 950 951 952 953 954 955 956 957 958 959 960 961 962 963 964 965 966 967 968 969 970 971 972 973 0
-9 194 950 951 952 953 954 955 956 957 958 959 960 961 962 963 964 965 966 967 968 969 970 971 972 973 0
-10 195 950 951 952 953 954 955 956 957 958 959 960 961 962 963 964 965 966 967 968 969 970 971 972 973 0
-11 196 950 951 952 953 954 955 956 957 958 959 960 961 962 963 964 965 966 967 968 969 970 971 972 973 0
-12 197 950 951 952 953 954 955 956 957 958 959 960 961 962 963 964 965 966 967 968 969 970 971 972 973 0
-26 211 950 951 952 953 954 955 956 957 958 959 960 961 962 963 964 965 966 967 968 969 970 971 972 973 0
-27 212 950 951 952 953 954 955 956 957 958 959 960 961 962 963 964 965 966 967 968 969 970 971 972 973 0
-28 213 950 951 952 953 954 955 956 957 958 959 960 961 962 963 964 965 966 967 968 969 970 971 972 973 0
-29 214 950 951 952 953 954 955 956 957 958 959 960 961 962 963 964 965 966 967 968 969 970 971 972 973 0
-13 198 974 975 976 977 978 979 980 981 982 983 984 985 986 987 988 989 990 991 992 993 0
-14 199 974 975 976 977 978 979 980 981 982 983 984 985 986 987 988 989 990 991 992 993 0
-15 200 974 975 976 977 978 979 980 981 982 983 984 985 986 987 988 989 990 991 992 993 0
-16 201 974 975 976 977 978 979 980 981 982 983 984 985 986 987 988 989 990 991 992 993 0
-17 202 974 975 976 977 978 979 980 981 982 983 984 985 986 987 988 989 990 991 992 993 0
-30 215 974 975 976 977 978 979 980 981 982 983 984 985 986 987 988 989 990 991 992 993 0
-31 216 974 975 976 977 978 979 980 981 982 983 984 985 986 987 988 989 990 991 992 993 0
-32 217 974 975 976 977 978 979 980 981 982 983 984 985 986 987 988 989 990 991 992 993 0
-33 218 974 975 976 977 978 979 980 981 982 983 984 985 986 987 988 989 990 991 992 993 0
-18 203 994 995 996 997 998 999 1000 1001 1002 1003 1004 1005 1006 1007 1008 1009 0
-19 204 994 995 996 997 998 999 1000 1001 1002 1003 1004 1005 1006 1007 1008 1009 0
-20 205 994 995 996 997 998 999 1000 1001 1002 1003 1004 1005 1006 1007 1008 1009 0
-21 206 994 995 996 997 998 999 1000 1001 1002 1003 1004 1005 1006 1007 1008 1009 0
-34 219 994 995 996 997 998 999 1000 1001 1002 1003 1004 1005 1006 1007 1008 1009 0
-35 220 994 995 996 997 998 999 1000 1001 1002 1003 1004 1005 1006 1007 1008 1009 0
-36 221 994 995 996 997 998 999 1000 1001 1002 1003 1004 1005 1006 1007 1008 1009 0
-37 222 994 995 996 997 998 999 1000 1001 1002 1003 1004 1005 1006 1007 1008 1009 0
-1010 -1011 0
-1010 -1012 0
-1010 -1013 0
-1010 -1014 0
-1010 -1015 0
-1010 -1016 0
-1010 -1017 0
-1010 -1018 0
-1010 -1019 0
-1010 -1020 0
-1010 -1021 0
-1010 -1022 0
-1010 -1023 0
-1010 -1024 0
-1010 -1025 0
-1010 -1026 0
-1010 -1027 0
-1010 -1028 0
-1010 -1029 0
-1010 -1030 0
-1010 -1031 0
-1010 -1032 0
-1010 -1033 0
-1010 -1034 0
-1010 -1035 0
-1010 -1036 0
-1010 -1037 0
-1010 -1038 0
-1010 -1039 0
-1010 -1040 0
-1010 -1041 0
-1010 -1042 0
-1010 -1043 0
-1010 -1044 0
-1010 -1045 0
-1010 -1046 0
-1010 -1047 0
-1010 -1048 0
-1010 -1049 0
-1010 -1050 0
-1010 -1051 0
-1010 -1052 0
-1010 -1053 0
-1010 -1054 0
-1010 -1055 0
-1010 -1056 0
-1010 -1057 0
-1010 -1058 0
-1010 -1059 0
-1010 -1060 0
-1010 -1061 0
-1010 -1062 0
-1010 -1063 0
-1010 -1064 0
-1010 -1065 0
-1010 -1066 0
-1010 -1067 0
-1010 -1068 0
-1010 -1069 0
-1010 -1070 0
-1010 -1071 0
-1010 -1072 0
-1010 -1073 0
-1010 -1074 0
-1010 -1075 0
-1010 -1076 0
-1010 -1077 0
-1010 -1078 0
-1010 -1079 0
-1010 -1080 0
-1010 -1081 0
-1010 -1082 0
-1010 -1083 0
-1010 -1084 0
-1010 -1085 0
-1010 -1086 0
-1010 -1087 0
-1010 -1088 0
-1010 -1089 0
-1010 -1090 0
-1010 -1091 0
-1010 -1092 0
-1010 -1093 0
-1011 -1012 0
-1011 -1013 0
-1011 -1014 0
-1011 -1015 0
-1011 -1016 0
-1011 -1017 0
-1011 -1018 0
-1011 -1019 0
-1011 -1020 0
-1011 -1021 0
-1011 -1022 0
-1011 -1023 0
-1011 -1024 0
-1011 -1025 0
-1011 -1026 0
-1011 -1027 0
-1011 -1028 0
-1011 -1029 0
-1011 -1030 0
-1011 -1031 0
-1011 -1032 0
-1011 -1033 0
-1011 -1034 0
-1011 -1035 0
-1011 -1036 0
-1011 -1037 0
-1011 -1038 0
-1011 -1039 0
-1011 -1040 0
-1011 -1041 0
-1011 -1042 0
-1011 -1043 0
-1011 -1044 0
-1011 -1045 0
-1011 -1046 0
-1011 -1047 0
-1011 -1048 0
-1011 -1049 0
-1011 -1050 0
-1011 -1051 0
-1011 -1052 0
-1011 -1053 0
-1011 -1054 0
-1011 -1055 0
-1011 -1056 0
-1011 -1057 0
-1011 -1058 0
-1011 -1059 0
-1011 -1060 0
-1011 -1061 0
-1011 -1062 0
-1011 -1063 0
-1011 -1064 0
-1011 -1065 0
-1011 -1066 0
-1011 -1067 0
-1011 -1068 0
-1011 -1069 0
-1011 -1070 0
-1011 -1071 0
-1011 -1072 0
-1011 -1073 0
-1011 -1074 0
-1011 -1075 0
-1011 -1076 0
-1011 -1077 0
-1011 -1078 0
-1011 -1079 0
-1011 -1080 0
-1011 -1081 0
-1011 -1082 0
-1011 -1083 0
-1011 -1084 0
-1011 -1085 0
-1011 -1086 0
-1011 -1087 0
-1011 -1088 0
-1011 -1089 0
-1011 -1090 0
-1011 -1091 0
-1011 -1092 0
-1011 -1093 0
-1012 -1013 0
-1012 -1014 0
-1012 -1015 0
-1012 -1016 0
-1012 -1017 0
-1012 -1018 0
-1012 -1019 0
-1012 -1020 0
-1012 -1021 0
-1012 -1022 0
-1012 -1023 0
-1012 -1024 0
-1012 -1025 0
-1012 -1026 0
-1012 -1027 0
-1012 -1028 0
-1012 -1029 0
-1012 -1030 0
-1012 -1031 0
-1012 -1032 0
-1012 -1033 0
-1012 -1034 0
-1012 -1035 0
-1012 -1036 0
-1012 -1037 0
-1012 -1038 0
-1012 -1039 0
-1012 -1040 0
-1012 -1041 0
-1012 -1042 0
-1012 -1043 0
-1012 -1044 0
-1012 -1045 0
-1012 -1046 0
-1012 -1047 0
-1012 -1048 0
-1012 -1049 0
-1012 -1050 0
-1012 -1051 0
-1012 -1052 0
-1012 -1053 0
-1012 -1054 0
-1012 -1055 0
-1012 -1056 0
-1012 -1057 0
-1012 -1058 0
-1012 -1059 0
-1012 -1060 0
-1012 -1061 0
-1012 -1062 0
-1012 -1063 0
-1012 -1064 0
-1012 -1065 0
-1012 -1066 0
-1012 -1067 0
-1012 -1068 0
-1012 -1069 0
-1012 -1070 0
-1012 -1071 0
-1012 -1072 0
-1012 -1073 0
-1012 -1074 0
-1012 -1075 0
-1012 -1076 0
-1012 -1077 0
-1012 -1078 0
-1012 -1079 0
-1012 -1080 0
-1012 -1081 0
-1012 -1082 0
-1012 -1083 0
-1012 -1084 0
-1012 -1085 0
-1012 -1086 0
-1012 -1087 0
-1012 -1088 0
-1012 -1089 0
-1012 -1090 0
-1012 -1091 0
-1012 -1092 0
-1012 -1093 0
-1013 -1014 0
-1013 -1015 0
-1013 -1016 0
-1013 -1017 0
-1013 -1018 0
-1013 -1019 0
-1013 -1020 0
-1013 -1021 0
-1013 -1022 0
-1013 -1023 0
-1013 -1024 0
-1013 -1025 0
-1013 -1026 0
-1013 -1027 0
-1013 -1028 0
-1013 -1029 0
-1013 -1030 0
-1013 -1031 0
-1013 -1032 0
-1013 -1033 0
-1013 -1034 0
-1013 -1035 0
-1013 -1036 0
-1013 -1037 0
-1013 -1038 0
-1013 -1039 0
-1013 -1040 0
-1013 -1041 0
-1013 -1042 0
-1013 -1043 0
-1013 -1044 0
-1013 -1045 0
-1013 -1046 0
-1013 -1047 0
-1013 -1048 0
-1013 -1049 0
-1013 -1050 0
-1013 -1051 0
-1013 -1052 0
-1013 -1053 0
-1013 -1054 0
-1013 -1055 0
-1013 -1056 0
-1013 -1057 0
-1013 -1058 0
-1013 -1059 0
-1013 -1060 0
-1013 -1061 0
-1013 -1062 0
-1013 -1063 0
-1013 -1064 0
-1013 -1065 0
-1013 -1066 0
-1013 -1067 0
-1013 -1068 0
-1013 -1069 0
-1013 -1070 0
-1013 -1071 0
-1013 -1072 0
-1013 -1073 0
-1013 -1074 0
-1013 -1075 0
-1013 -1076 0
-1013 -1077 0
-1013 -1078 0
-1013 -1079 0
-1013 -1080 0
-1013 -1081 0
-1013 -1082 0
-1013 -1083 0
-1013 -1084 0
-1013 -1085 0
-1013 -1086 0
-1013 -1087 0
-1013 -1088 0
-1013 -1089 0
-1013 -1090 0
-1013 -1091 0
-1013 -1092 0
-1013 -1093 0
-1014 -1015 0
-1014 -1016 0
-1014 -1017 0
-1014 -1018 0
-1014 -1019 0
-1014 -1020 0
-1014 -1021 0
-1014 -1022 0
-1014 -1023 0
-1014 -1024 0
-1014 -1025 0
-1014 -1026 0
-1014 -1027 0
-1014 -1028 0
-1014 -1029 0
-1014 -1030 0
-1014 -1031 0
-1014 -1032 0
-1014 -1033 0
-1014 -1034 0
-1014 -1035 0
-1014 -1036 0
-1014 -1037 0
-1014 -1038 0
-1014 -1039 0
-1014 -1040 0
-1014 -1041 0
-1014 -1042 0
-1014 -1043 0
-1014 -1044 0
-1014 -1045 0
-1014 -1046 0
-1014 -1047 0
-1014 -1048 0
-1014 -1049 0
-1014 -1050 0
-1014 -1051 0
-1014 -1052 0
-1014 -1053 0
-1014 -1054 0
-1014 -1055 0
-1014 -1056 0
-1014 -1057 0
-1014 -1058 0
-1014 -1059 0
-1014 -1060 0
-1014 -1061 0
-1014 -1062 0
-1014 -1063 0
-1014 -1064 0
-1014 -1065 0
-1014 -1066 0
-1014 -1067 0
-1014 -1068 0
-1014 -1069 0
-1014 -1070 0
-1014 -1071 0
-1014 -1072 0
-1014 -1073 0
-1014 -1074 0
-1014 -1075 0
-1014 -1076 0
-1014 -1077 0
-1014 -1078 0
-1014 -1079 0
-1014 -1080 0
-1014 -1081 0
-1014 -1082 0
-1014 -1083 0
-1014 -1084 0
-1014 -1085 0
-1014 -1086 0
-1014 -1087 0
-1014 -1088 0
-1014 -1089 0
-1014 -1090 0
-1014 -1091 0
-1014 -1092 0
-1014 -1093 0
-1015 -1016 0
-1015 -1017 0
-1015 -1018 0
-1015 -1019 0
-1015 -1020 0
-1015 -1021 0
-1015 -1022 0
-1015 -1023 0
-1015 -1024 0
-1015 -1025 0
-1015 -1026 0
-1015 -1027 0
-1015 -1028 0
-1015 -1029 0
-1015 -1030 0
-1015 -1031 0
-1015 -1032 0
-1015 -1033 0
-1015 -1034 0
-1015 -1035 0
-1015 -1036 0
-1015 -1037 0
-1015 -1038 0
-1015 -1039 0
-1015 -1040 0
-1015 -1041 0
-1015 -1042 0
-1015 -1043 0
-1015 -1044 0
-1015 -1045 0
-1015 -1046 0
-1015 -1047 0
-1015 -1048 0
-1015 -1049 0
-1015 -1050 0
-1015 -1051 0
-1015 -1052 0
-1015 -1053 0
-1015 -1054 0
-1015 -1055 0
-1015 -1056 0
-1015 -1057 0
-1015 -1058 0
-1015 -1059 0
-1015 -1060 0
-1015 -1061 0
-1015 -1062 0
-1015 -1063 0
-1015 -1064 0
-1015 -1065 0
-1015 -1066 0
-1015 -1067 0
-1015 -1068 0
-1015 -1069 0
-1015 -1070 0
-1015 -1071 0
-1015 -1072 0
-1015 -1073 0
-1015 -1074 0
-1015 -1075 0
-1015 -1076 0
-1015 -1077 0
-1015 -1078 0
-1015 -1079 0
-1015 -1080 0
-1015 -1081 0
-1015 -1082 0
-1015 -1083 0
-1015 -1084 0
-1015 -1085 0
-1015 -1086 0
-1015 -1087 0
-1015 -1088 0
-1015 -1089 0
-1015 -1090 0
-1015 -1091 0
-1015 -1092 0
-1015 -1093 0
-1016 -1017 0
-1016 -1018 0
-1016 -1019 0
-1016 -1020 0
-1016 -1021 0
-1016 -1022 0
-1016 -1023 0
-1016 -1024 0
-1016 -1025 0
-1016 -1026 0
-1016 -1027 0
-1016 -1028 0
-1016 -1029 0
-1016 -1030 0
-1016 -1031 0
-1016 -1032 0
-1016 -1033 0
-1016 -1034 0
-1016 -1035 0
-1016 -1036 0
-1016 -1037 0
-1016 -1038 0
-1016 -1039 0
-1016 -1040 0
-1016 -1041 0
-1016 -1042 0
-1016 -1043 0
-1016 -1044 0
-1016 -1045 0
-1016 -1046 0
-1016 -1047 0
-1016 -1048 0
-1016 -1049 0
-1016 -1050 0
-1016 -1051 0
-1016 -1052 0
-1016 -1053 0
-1016 -1054 0
-1016 -1055 0
-1016 -1056 0
-1016 -1057 0
-1016 -1058 0
-1016 -1059 0
-1016 -1060 0
-1016 -1061 0
-1016 -1062 0
-1016 -1063 0
-1016 -1064 0
-1016 -1065 0
-1016 -1066 0
-1016 -1067 0
-1016 -1068 0
-1016 -1069 0
-1016 -1070 0
-1016 -1071 0
-1016 -1072 0
-1016 -1073 0
-1016 -1074 0
-1016 -1075 0
-1016 -1076 0
-1016 -1077 0
-1016 -1078 0
-1016 -1079 0
-1016 -1080 0
-1016 -1081 0
-1016 -1082 0
-1016 -1083 0
-1016 -1084 0
-1016 -1085 0
-1016 -1086 0
-1016 -1087 0
-1016 -1088 0
-1016 -1089 0
-1016 -1090 0
-1016 -1091 0
-1016 -1092 0
-1016 -1093 0
-1017 -1018 0
-1017 -1019 0
-1017 -1020 0
-1017 -1021 0
-1017 -1022 0
-1017 -1023 0
-1017 -1024 0
-1017 -1025 0
-1017 -1026 0
-1017 -1027 0
-1017 -1028 0
-1017 -1029 0
-1017 -1030 0
-1017 -1031 0
-1017 -1032 0
-1017 -1033 0
-1017 -1034 0
-1017 -1035 0
-1017 -1036 0
-1017 -1037 0
-1017 -1038 0
-1017 -1039 0
-1017 -1040 0
-1017 -1041 0
-1017 -1042 0
-1017 -1043 0
-1017 -1044 0
-1017 -1045 0
-1017 -1046 0
-1017 -1047 0
-1017 -1048 0
-1017 -1049 0
-1017 -1050 0
-1017 -1051 0
-1017 -1052 0
-1017 -1053 0
-1017 -1054 0
-1017 -1055 0
-1017 -1056 0
-1017 -1057 0
-1017 -1058 0
-1017 -1059 0
-1017 -1060 0
-1017 -1061 0
-1017 -1062 0
-1017 -1063 0
-1017 -1064 0
-1017 -1065 0
-1017 -1066 0
-1017 -1067 0
-1017 -1068 0
-1017 -1069 0
-1017 -1070 0
-1017 -1071 0
-1017 -1072 0
-1017 -1073 0
-1017 -1074 0
-1017 -1075 0
-1017 -1076 0
-1017 -1077 0
-1017 -1078 0
-1017 -1079 0
-1017 -1080 0
-1017 -1081 0
-1017 -1082 0
-1017 -1083 0
-1017 -1084 0
-1017 -1085 0
-1017 -1086 0
-1017 -1087 0
-1017 -1088 0
-1017 -1089 0
-1017 -1090 0
-1017 -1091 0
-1017 -1092 0
-1017 -1093 0
-1018 -1019 0
-1018 -1020 0
-1018 -1021 0
-1018 -1022 0
-1018 -1023 0
-1018 -1024 0
-1018 -1025 0
-1018 -1026 0
-1018 -1027 0
-1018 -1028 0
-1018 -1029 0
-1018 -1030 0
-1018 -1031 0
-1018 -1032 0
-1018 -1033 0
-1018 -1034 0
-1018 -1035 0
-1018 -1036 0
-1018 -1037 0
-1018 -1038 0
-1018 -1039 0
-1018 -1040 0
-1018 -1041 0
-1018 -1042 0
-1018 -1043 0
-1018 -1044 0
-1018 -1045 0
-1018 -1046 0
-1018 -1047 0
-1018 -1048 0
-1018 -1049 0
-1018 -1050 0
-1018 -1051 0
-1018 -1052 0
-1018 -1053 0
-1018 -1054 0
-1018 -1055 0
-1018 -1056 0
-1018 -1057 0
-1018 -1058 0
-1018 -1059 0
-1018 -1060 0
-1018 -1061 0
-1018 -1062 0
-1018 -1063 0
-1018 -1064 0
-1018 -1065 0
-1018 -1066 0
-1018 -1067 0
-1018 -1068 0
-1018 -1069 0
-1018 -1070 0
-1018 -1071 0
-1018 -1072 0
-1018 -1073 0
-1018 -1074 0
-1018 -1075 0
-1018 -1076 0
-1018 -1077 0
-1018 -1078 0
-1018 -1079 0
-1018 -1080 0
-1018 -1081 0
-1018 -1082 0
-1018 -1083 0
-1018 -1084 0
-1018 -1085 0
-1018 -1086 0
-1018 -1087 0
-1018 -1088 0
-1018 -1089 0
-1018 -1090 0
-1018 -1091 0
-1018 -1092 0
-1018 -1093 0
-1019 -1020 0
-1019 -1021 0
-1019 -1022 0
-1019 -1023 0
-1019 -1024 0
-1019 -1025 0
-1019 -1026 0
-1019 -1027 0
-1019 -1028 0
-1019 -1029 0
-1019 -1030 0
-1019 -1031 0
-1019 -1032 0
-1019 -1033 0
-1019 -1034 0
-1019 -1035 0
-1019 -1036 0
-1019 -1037 0
-1019 -1038 0
-1019 -1039 0
-1019 -1040 0
-1019 -1041 0
-1019 -1042 0
-1019 -1043 0
-1019 -1044 0
-1019 -1045 0
-1019 -1046 0
-1019 -1047 0
-1019 -1048 0
-1019 -1049 0
-1019 -1050 0
-1019 -1051 0
-1019 -1052 0
-1019 -1053 0
-1019 -1054 0
-1019 -1055 0
-1019 -1056 0
-1019 -1057 0
-1019 -1058 0
-1019 -1059 0
-1019 -1060 0
-1019 -1061 0
-1019 -1062 0
-1019 -1063 0
-1019 -1064 0
-1019 -1065 0
-1019 -1066 0
-1019 -1067 0
-1019 -1068 0
-1019 -1069 0
-1019 -1070 0
-1019 -1071 0
-1019 -1072 0
-1019 -1073 0
-1019 -1074 0
-1019 -1075 0
-1019 -1076 0
-1019 -1077 0
-1019 -1078 0
-1019 -1079 0
-1019 -1080 0
-1019 -1081 0
-1019 -1082 0
-1019 -1083 0
-1019 -1084 0
-1019 -1085 0
-1019 -1086 0
-1019 -1087 0
-1019 -1088 0
-1019 -1089 0
-1019 -1090 0
-1019 -1091 0
-1019 -1092 0
-1019 -1093 0
-1020 -1021 0
-1020 -1022 0
-1020 -1023 0
-1020 -1024 0
-1020 -1025 0
-1020 -1026 0
-1020 -1027 0
-1020 -1028 0
-1020 -1029 0
-1020 -1030 0
-1020 -1031 0
-1020 -1032 0
-1020 -1033 0
-1020 -1034 0
-1020 -1035 0
-1020 -1036 0
-1020 -1037 0
-1020 -1038 0
-1020 -1039 0
-1020 -1040 0
-1020 -1041 0
-1020 -1042 0
-1020 -1043 0
-1020 -1044 0
-1020 -1045 0
-1020 -1046 0
-1020 -1047 0
-1020 -1048 0
-1020 -1049 0
-1020 -1050 0
-1020 -1051 0
-1020 -1052 0
-1020 -1053 0
-1020 -1054 0
-1020 -1055 0
-1020 -1056 0
-1020 -1057 0
-1020 -1058 0
-1020 -1059 0
-1020 -1060 0
-1020 -1061 0
-1020 -1062 0
-1020 -1063 0
-1020 -1064 0
-1020 -1065 0
-1020 -1066 0
-1020 -1067 0
-1020 -1068 0
-1020 -1069 0
-1020 -1070 0
-1020 -1071 0
-1020 -1072 0
-1020 -1073 0
-1020 -1074 0
-1020 -1075 0
-1020 -1076 0
-1020 -1077 0
-1020 -1078 0
-1020 -1079 0
-1020 -1080 0
-1020 -1081 0
-1020 -1082 0
-1020 -1083 0
-1020 -1084 0
-1020 -1085 0
-1020 -1086 0
-1020 -1087 0
-1020 -1088 0
-1020 -1089 0
-1020 -1090 0
-1020 -1091 0
-1020 -1092 0
-1020 -1093 0
-1021 -1022 0
-1021 -1023 0
-1021 -1024 0
-1021 -1025 0
-1021 -1026 0
-1021 -1027 0
-1021 -1028 0
-1021 -1029 0
-1021 -1030 0
-1021 -1031 0
-1021 -1032 0
-1021 -1033 0
-1021 -1034 0
-1021 -1035 0
-1021 -1036 0
-1021 -1037 0
-1021 -1038 0
-1021 -1039 0
-1021 -1040 0
-1021 -1041 0
-1021 -1042 0
-1021 -1043 0
-1021 -1044 0
-1021 -1045 0
-1021 -1046 0
-1021 -1047 0
-1021 -1048 0
-1021 -1049 0
-1021 -1050 0
-1021 -1051 0
-1021 -1052 0
-1021 -1053 0
-1021 -1054 0
-1021 -1055 0
-1021 -1056 0
-1021 -1057 0
-1021 -1058 0
-1021 -1059 0
-1021 -1060 0
-1021 -1061 0
-1021 -1062 0
-1021 -1063 0
-1021 -1064 0
-1021 -1065 0
-1021 -1066 0
-1021 -1067 0
-1021 -1068 0
-1021 -1069 0
-1021 -1070 0
-1021 -1071 0
-1021 -1072 0
-1021 -1073 0
-1021 -1074 0
-1021 -1075 0
-1021 -1076 0
-1021 -1077 0
-1021 -1078 0
-1021 -1079 0
-1021 -1080 0
-1021 -1081 0
-1021 -1082 0
-1021 -1083 0
-1021 -1084 0
-1021 -1085 0
-1021 -1086 0
-1021 -1087 0
-1021 -1088 0
-1021 -1089 0
-1021 -1090 0
-1021 -1091 0
-1021 -1092 0
-1021 -1093 0
-1022 -1023 0
-1022 -1024 0
-1022 -1025 0
-1022 -1026 0
-1022 -1027 0
-1022 -1028 0
-1022 -1029 0
-1022 -1030 0
-1022 -1031 0
-1022 -1032 0
-1022 -1033 0
-1022 -1034 0
-1022 -1035 0
-1022 -1036 0
-1022 -1037 0
-1022 -1038 0
-1022 -1039 0
-1022 -1040 0
-1022 -1041 0
-1022 -1042 0
-1022 -1043 0
-1022 -1044 0
-1022 -1045 0
-1022 -1046 0
-1022 -1047 0
-1022 -1048 0
-1022 -1049 0
-1022 -1050 0
-1022 -1051 0
-1022 -1052 0
-1022 -1053 0
-1022 -1054 0
-1022 -1055 0
-1022 -1056 0
-1022 -1057 0
-1022 -1058 0
-1022 -1059 0
-1022 -1060 0
-1022 -1061 0
-1022 -1062 0
-1022 -1063 0
-1022 -1064 0
-1022 -1065 0
-1022 -1066 0
-1022 -1067 0
-1022 -1068 0
-1022 -1069 0
-1022 -1070 0
-1022 -1071 0
-1022 -1072 0
-1022 -1073 0
-1022 -1074 0
-1022 -1075 0
-1022 -1076 0
-1022 -1077 0
-1022 -1078 0
-1022 -1079 0
-1022 -1080 0
-1022 -1081 0
-1022 -1082 0
-1022 -1083 0
-1022 -1084 0
-1022 -1085 0
-1022 -1086 0
-1022 -1087 0
-1022 -1088 0
-1022 -1089 0
-1022 -1090 0
-1022 -1091 0
-1022 -1092 0
-1022 -1093 0
-1023 -1024 0
-1023 -1025 0
-1023 -1026 0
-1023 -1027 0
-1023 -1028 0
-1023 -1029 0
-1023 -1030 0
-1023 -1031 0
-1023 -1032 0
-1023 -1033 0
-1023 -1034 0
-1023 -1035 0
-1023 -1036 0
-1023 -1037 0
-1023 -1038 0
-1023 -1039 0
-1023 -1040 0
-1023 -1041 0
-1023 -1042 0
-1023 -1043 0
-1023 -1044 0
-1023 -1045 0
-1023 -1046 0
-1023 -1047 0
-1023 -1048 0
-1023 -1049 0
-1023 -1050 0
-1023 -1051 0
-1023 -1052 0
-1023 -1053 0
-1023 -1054 0
-1023 -1055 0
-1023 -1056 0
-1023 -1057 0
-1023 -1058 0
-1023 -1059 0
-1023 -1060 0
-1023 -1061 0
-1023 -1062 0
-1023 -1063 0
-1023 -1064 0
-1023 -1065 0
-1023 -1066 0
-1023 -1067 0
-1023 -1068 0
-1023 -1069 0
-1023 -1070 0
-1023 -1071 0
-1023 -1072 0
-1023 -1073 0
-1023 -1074 0
-1023 -1075 0
-1023 -1076 0
-1023 -1077 0
-1023 -1078 0
-1023 -1079 0
-1023 -1080 0
-1023 -1081 0
-1023 -1082 0
-1023 -1083 0
-1023 -1084 0
-1023 -1085 0
-1023 -1086 0
-1023 -1087 0
-1023 -1088 0
-1023 -1089 0
-1023 -1090 0
-1023 -1091 0
-1023 -1092 0
-1023 -1093 0
-1024 -1025 0
-1024 -1026 0
-1024 -1027 0
-1024 -1028 0
-1024 -1029 0
-1024 -1030 0
-1024 -1031 0
-1024 -1032 0
-1024 -1033 0
-1024 -1034 0
-1024 -1035 0
-1024 -1036 0
-1024 -1037 0
-1024 -1038 0
-1024 -1039 0
-1024 -1040 0
-1024 -1041 0
-1024 -1042 0
-1024 -1043 0
-1024 -1044 0
-1024 -1045 0
-1024 -1046 0
-1024 -1047 0
-1024 -1048 0
-1024 -1049 0
-1024 -1050 0
-1024 -1051 0
-1024 -1052 0
-1024 -1053 0
-1024 -1054 0
-1024 -1055 0
-1024 -1056 0
-1024 -1057 0
-1024 -1058 0
-1024 -1059 0
-1024 -1060 0
-1024 -1061 0
-1024 -1062 0
-1024 -1063 0
-1024 -1064 0
-1024 -1065 0
-1024 -1066 0
-1024 -1067 0
-1024 -1068 0
-1024 -1069 0
-1024 -1070 0
-1024 -1071 0
-1024 -1072 0
-1024 -1073 0
-1024 -1074 0
-1024 -1075 0
-1024 -1076 0
-1024 -1077 0
-1024 -1078 0
-1024 -1079 0
-1024 -1080 0
-1024 -1081 0
-1024 -1082 0
-1024 -1083 0
-1024 -1084 0
-1024 -1085 0
-1024 -1086 0
-1024 -1087 0
-1024 -1088 0
-1024 -1089 0
-1024 -1090 0
-1024 -1091 0
-1024 -1092 0
-1024 -1093 0
-1025 -1026 0
-1025 -1027 0
-1025 -1028 0
-1025 -1029 0
-1025 -1030 0
-1025 -1031 0
-1025 -1032 0
-1025 -1033 0
-1025 -1034 0
-1025 -1035 0
-1025 -1036 0
-1025 -1037 0
-1025 -1038 0
-1025 -1039 0
-1025 -1040 0
-1025 -1041 0
-1025 -1042 0
-1025 -1043 0
-1025 -1044 0
-1025 -1045 0
-1025 -1046 0
-1025 -1047 0
-1025 -1048 0
-1025 -1049 0
-1025 -1050 0
-1025 -1051 0
-1025 -1052 0
-1025 -1053 0
-1025 -1054 0
-1025 -1055 0
-1025 -1056 0
-1025 -1057 0
-1025 -1058 0
-1025 -1059 0
-1025 -1060 0
-1025 -1061 0
-1025 -1062 0
-1025 -1063 0
-1025 -1064 0
-1025 -1065 0
-1025 -1066 0
-1025 -1067 0
-1025 -1068 0
-1025 -1069 0
-1025 -1070 0
-1025 -1071 0
-1025 -1072 0
-1025 -1073 0
-1025 -1074 0
-1025 -1075 0
-1025 -1076 0
-1025 -1077 0
-1025 -1078 0
-1025 -1079 0
-1025 -1080 0
-1025 -1081 0
-1025 -1082 0
-1025 -1083 0
-1025 -1084 0
-1025 -1085 0
-1025 -1086 0
-1025 -1087 0
-1025 -1088 0
-1025 -1089 0
-1025 -1090 0
-1025 -1091 0
-1025 -1092 0
-1025 -1093 0
-1026 -1027 0
-1026 -1028 0
-1026 -1029 0
-1026 -1030 0
-1026 -1031 0
-1026 -1032 0
-1026 -1033 0
-1026 -1034 0
-1026 -1035 0
-1026 -1036 0
-1026 -1037 0
-1026 -1038 0
-1026 -1039 0
-1026 -1040 0
-1026 -1041 0
-1026 -1042 0
-1026 -1043 0
-1026 -1044 0
-1026 -1045 0
-1026 -1046 0
-1026 -1047 0
-1026 -1048 0
-1026 -1049 0
-1026 -1050 0
-1026 -1051 0
-1026 -1052 0
-1026 -1053 0
-1026 -1054 0
-1026 -1055 0
-1026 -1056 0
-1026 -1057 0
-1026 -1058 0
-1026 -1059 0
-1026 -1060 0
-1026 -1061 0
-1026 -1062 0
-1026 -1063 0
-1026 -1064 0
-1026 -1065 0
-1026 -1066 0
-1026 -1067 0
-1026 -1068 0
-1026 -1069 0
-1026 -1070 0
-1026 -1071 0
-1026 -1072 0
-1026 -1073 0
-1026 -1074 0
-1026 -1075 0
-1026 -1076 0
-1026 -1077 0
-1026 -1078 0
-1026 -1079 0
-1026 -1080 0
-1026 -1081 0
-1026 -1082 0
-1026 -1083 0
-1026 -1084 0
-1026 -1085 0
-1026 -1086 0
-1026 -1087 0
-1026 -1088 0
-1026 -1089 0
-1026 -1090 0
-1026 -1091 0
-1026 -1092 0
-1026 -1093 0
-1027 -1028 0
-1027 -1029 0
-1027 -1030 0
-1027 -1031 0
-1027 -1032 0
-1027 -1033 0
-1027 -1034 0
-1027 -1035 0
-1027 -1036 0
-1027 -1037 0
-1027 -1038 0
-1027 -1039 0
-1027 -1040 0
-1027 -1041 0
-1027 -1042 0
-1027 -1043 0
-1027 -1044 0
-1027 -1045 0
-1027 -1046 0
-1027 -1047 0
-1027 -1048 0
-1027 -1049 0
-1027 -1050 0
-1027 -1051 0
-1027 -1052 0
-1027 -1053 0
-1027 -1054 0
-1027 -1055 0
-1027 -1056 0
-1027 -1057 0
-1027 -1058 0
-1027 -1059 0
-1027 -1060 0
-1027 -1061 0
-1027 -1062 0
-1027 -1063 0
-1027 -1064 0
-1027 -1065 0
-1027 -1066 0
-1027 -1067 0
-1027 -1068 0
-1027 -1069 0
-1027 -1070 0
-1027 -1071 0
-1027 -1072 0
-1027 -1073 0
-1027 -1074 0
-1027 -1075 0
-1027 -1076 0
-1027 -1077 0
-1027 -1078 0
-1027 -1079 0
-1027 -1080 0
-1027 -1081 0
-1027 -1082 0
-1027 -1083 0
-1027 -1084 0
-1027 -1085 0
-1027 -1086 0
-1027 -1087 0
-1027 -1088 0
-1027 -1089 0
-1027 -1090 0
-1027 -1091 0
-1027 -1092 0
-1027 -1093 0
-1028 -1029 0
-1028 -1030 0
-1028 -1031 0
-1028 -1032 0
-1028 -1033 0
-1028 -1034 0
-1028 -1035 0
-1028 -1036 0
-1028 -1037 0
-1028 -1038 0
-1028 -1039 0
-1028 -1040 0
-1028 -1041 0
-1028 -1042 0
-1028 -1043 0
-1028 -1044 0
-1028 -1045 0
-1028 -1046 0
-1028 -1047 0
-1028 -1048 0
-1028 -1049 0
-1028 -1050 0
-1028 -1051 0
-1028 -1052 0
-1028 -1053 0
-1028 -1054 0
-1028 -1055 0
-1028 -1056 0
-1028 -1057 0
-1028 -1058 0
-1028 -1059 0
-1028 -1060 0
-1028 -1061 0
-1028 -1062 0
-1028 -1063 0
-1028 -1064 0
-1028 -1065 0
-1028 -1066 0
-1028 -1067 0
-1028 -1068 0
-1028 -1069 0
-1028 -1070 0
-1028 -1071 0
-1028 -1072 0
-1028 -1073 0
-1028 -1074 0
-1028 -1075 0
-1028 -1076 0
-1028 -1077 0
-1028 -1078 0
-1028 -1079 0
-1028 -1080 0
-1028 -1081 0
-1028 -1082 0
-1028 -1083 0
-1028 -1084 0
-1028 -1085 0
-1028 -1086 0
-1028 -1087 0
-1028 -1088 0
-1028 -1089 0
-1028 -1090 0
-1028 -1091 0
-1028 -1092 0
-1028 -1093 0
-1029 -1030 0
-1029 -1031 0
-1029 -1032 0
-1029 -1033 0
-1029 -1034 0
-1029 -1035 0
-1029 -1036 0
-1029 -1037 0
-1029 -1038 0
-1029 -1039 0
-1029 -1040 0
-1029 -1041 0
-1029 -1042 0
-1029 -1043 0
-1029 -1044 0
-1029 -1045 0
-1029 -1046 0
-1029 -1047 0
-1029 -1048 0
-1029 -1049 0
-1029 -1050 0
-1029 -1051 0
-1029 -1052 0
-1029 -1053 0
-1029 -1054 0
-1029 -1055 0
-1029 -1056 0
-1029 -1057 0
-1029 -1058 0
-1029 -1059 0
-1029 -1060 0
-1029 -1061 0
-1029 -1062 0
-1029 -1063 0
-1029 -1064 0
-1029 -1065 0
-1029 -1066 0
-1029 -1067 0
-1029 -1068 0
-1029 -1069 0
-1029 -1070 0
-1029 -1071 0
-1029 -1072 0
-1029 -1073 0
-1029 -1074 0
-1029 -1075 0
-1029 -1076 0
-1029 -1077 0
-1029 -1078 0
-1029 -1079 0
-1029 -1080 0
-1029 -1081 0
-1029 -1082 0
-1029 -1083 0
-1029 -1084 0
-1029 -1085 0
-1029 -1086 0
-1029 -1087 0
-1029 -1088 0
-1029 -1089 0
-1029 -1090 0
-1029 -1091 0
-1029 -1092 0
-1029 -1093 0
-1030 -1031 0
-1030 -1032 0
-1030 -1033 0
-1030 -1034 0
-1030 -1035 0
-1030 -1036 0
-1030 -1037 0
-1030 -1038 0
-1030 -1039 0
-1030 -1040 0
-1030 -1041 0
-1030 -1042 0
-1030 -1043 0
-1030 -1044 0
-1030 -1045 0
-1030 -1046 0
-1030 -1047 0
-1030 -1048 0
-1030 -1049 0
-1030 -1050 0
-1030 -1051 0
-1030 -1052 0
-1030 -1053 0
-1030 -1054 0
-1030 -1055 0
-1030 -1056 0
-1030 -1057 0
-1030 -1058 0
-1030 -1059 0
-1030 -1060 0
-1030 -1061 0
-1030 -1062 0
-1030 -1063 0
-1030 -1064 0
-1030 -1065 0
-1030 -1066 0
-1030 -1067 0
-1030 -1068 0
-1030 -1069 0
-1030 -1070 0
-1030 -1071 0
-1030 -1072 0
-1030 -1073 0
-1030 -1074 0
-1030 -1075 0
-1030 -1076 0
-1030 -1077 0
-1030 -1078 0
-1030 -1079 0
-1030 -1080 0
-1030 -1081 0
-1030 -1082 0
-1030 -1083 0
-1030 -1084 0
-1030 -1085 0
-1030 -1086 0
-1030 -1087 0
-1030 -1088 0
-1030 -1089 0
-1030 -1090 0
-1030 -1091 0
-1030 -1092 0
-1030 -1093 0
-1031 -1032 0
-1031 -1033 0
-1031 -1034 0
-1031 -1035 0
-1031 -1036 0
-1031 -1037 0
-1031 -1038 0
-1031 -1039 0
-1031 -1040 0
-1031 -1041 0
-1031 -1042 0
-1031 -1043 0
-1031 -1044 0
-1031 -1045 0
-1031 -1046 0
-1031 -1047 0
-1031 -1048 0
-1031 -1049 0
-1031 -1050 0
-1031 -1051 0
-1031 -1052 0
-1031 -1053 0
-1031 -1054 0
-1031 -1055 0
-1031 -1056 0
-1031 -1057 0
-1031 -1058 0
-1031 -1059 0
-1031 -1060 0
-1031 -1061 0
-1031 -1062 0
-1031 -1063 0
-1031 -1064 0
-1031 -1065 0
-1031 -1066 0
-1031 -1067 0
-1031 -1068 0
-1031 -1069 0
-1031 -1070 0
-1031 -1071 0
-1031 -1072 0
-1031 -1073 0
-1031 -1074 0
-1031 -1075 0
-1031 -1076 0
-1031 -1077 0
-1031 -1078 0
-1031 -1079 0
-1031 -1080 0
-1031 -1081 0
-1031 -1082 0
-1031 -1083 0
-1031 -1084 0
-1031 -1085 0
-1031 -1086 0
-1031 -1087 0
-1031 -1088 0
-1031 -1089 0
-1031 -1090 0
-1031 -1091 0
-1031 -1092 0
-1031 -1093 0
-1032 -1033 0
-1032 -1034 0
-1032 -1035 0
-1032 -1036 0
-1032 -1037 0
-1032 -1038 0
-1032 -1039 0
-1032 -1040 0
-1032 -1041 0
-1032 -1042 0
-1032 -1043 0
-1032 -1044 0
-1032 -1045 0
-1032 -1046 0
-1032 -1047 0
-1032 -1048 0
-1032 -1049 0
-1032 -1050 0
-1032 -1051 0
-1032 -1052 0
-1032 -1053 0
-1032 -1054 0
-1032 -1055 0
-1032 -1056 0
-1032 -1057 0
-1032 -1058 0
-1032 -1059 0
-1032 -1060 0
-1032 -1061 0
-1032 -1062 0
-1032 -1063 0
-1032 -1064 0
-1032 -1065 0
-1032 -1066 0
-1032 -1067 0
-1032 -1068 0
-1032 -1069 0
-1032 -1070 0
-1032 -1071 0
-1032 -1072 0
-1032 -1073 0
-1032 -1074 0
-1032 -1075 0
-1032 -1076 0
-1032 -1077 0
-1032 -1078 0
-1032 -1079 0
-1032 -1080 0
-1032 -1081 0
-1032 -1082 0
-1032 -1083 0
-1032 -1084 0
-1032 -1085 0
-1032 -1086 0
-1032 -1087 0
-1032 -1088 0
-1032 -1089 0
-1032 -1090 0
-1032 -1091 0
-1032 -1092 0
-1032 -1093 0
-1033 -1034 0
-1033 -1035 0
-1033 -1036 0
-1033 -1037 0
-1033 -1038 0
-1033 -1039 0
-1033 -1040 0
-1033 -1041 0
-1033 -1042 0
-1033 -1043 0
-1033 -1044 0
-1033 -1045 0
-1033 -1046 0
-1033 -1047 0
-1033 -1048 0
-1033 -1049 0
-1033 -1050 0
-1033 -1051 0
-1033 -1052 0
-1033 -1053 0
-1033 -1054 0
-1033 -1055 0
-1033 -1056 0
-1033 -1057 0
-1033 -1058 0
-1033 -1059 0
-1033 -1060 0
-1033 -1061 0
-1033 -1062 0
-1033 -1063 0
-1033 -1064 0
-1033 -1065 0
-1033 -1066 0
-1033 -1067 0
-1033 -1068 0
-1033 -1069 0
-1033 -1070 0
-1033 -1071 0
-1033 -1072 0
-1033 -1073 0
-1033 -1074 0
-1033 -1075 0
-1033 -1076 0
-1033 -1077 0
-1033 -1078 0
-1033 -1079 0
-1033 -1080 0
-1033 -1081 0
-1033 -1082 0
-1033 -1083 0
-1033 -1084 0
-1033 -1085 0
-1033 -1086 0
-1033 -1087 0
-1033 -1088 0
-1033 -1089 0
-1033 -1090 0
-1033 -1091 0
-1033 -1092 0
-1033 -1093 0
-1034 -1035 0
-1034 -1036 0
-1034 -1037 0
-1034 -1038 0
-1034 -1039 0
-1034 -1040 0
-1034 -1041 0
-1034 -1042 0
-1034 -1043 0
-1034 -1044 0
-1034 -1045 0
-1034 -1046 0
-1034 -1047 0
-1034 -1048 0
-1034 -1049 0
-1034 -1050 0
-1034 -1051 0
-1034 -1052 0
-1034 -1053 0
-1034 -1054 0
-1034 -1055 0
-1034 -1056 0
-1034 -1057 0
-1034 -1058 0
-1034 -1059 0
-1034 -1060 0
-1034 -1061 0
-1034 -1062 0
-1034 -1063 0
-1034 -1064 0
-1034 -1065 0
-1034 -1066 0
-1034 -1067 0
-1034 -1068 0
-1034 -1069 0
-1034 -1070 0
-1034 -1071 0
-1034 -1072 0
-1034 -1073 0
-1034 -1074 0
-1034 -1075 0
-1034 -1076 0
-1034 -1077 0
-1034 -1078 0
-1034 -1079 0
-1034 -1080 0
-1034 -1081 0
-1034 -1082 0
-1034 -1083 0
-1034 -1084 0
-1034 -1085 0
-1034 -1086 0
-1034 -1087 0
-1034 -1088 0
-1034 -1089 0
-1034 -1090 0
-1034 -1091 0
-1034 -1092 0
-1034 -1093 0
-1035 -1036 0
-1035 -1037 0
-1035 -1038 0
-1035 -1039 0
-1035 -1040 0
-1035 -1041 0
-1035 -1042 0
-1035 -1043 0
-1035 -1044 0
-1035 -1045 0
-1035 -1046 0
-1035 -1047 0
-1035 -1048 0
-1035 -1049 0
-1035 -1050 0
-1035 -1051 0
-1035 -1052 0
-1035 -1053 0
-1035 -1054 0
-1035 -1055 0
-1035 -1056 0
-1035 -1057 0
-1035 -1058 0
-1035 -1059 0
-1035 -1060 0
-1035 -1061 0
-1035 -1062 0
-1035 -1063 0
-1035 -1064 0
-1035 -1065 0
-1035 -1066 0
-1035 -1067 0
-1035 -1068 0
-1035 -1069 0
-1035 -1070 0
-1035 -1071 0
-1035 -1072 0
-1035 -1073 0
-1035 -1074 0
-1035 -1075 0
-1035 -1076 0
-1035 -1077 0
-1035 -1078 0
-1035 -1079 0
-1035 -1080 0
-1035 -1081 0
-1035 -1082 0
-1035 -1083 0
-1035 -1084 0
-1035 -1085 0
-1035 -1086 0
-1035 -1087 0
-1035 -1088 0
-1035 -1089 0
-1035 -1090 0
-1035 -1091 0
-1035 -1092 0
-1035 -1093 0
-1036 -1037 0
-1036 -1038 0
-1036 -1039 0
-1036 -1040 0
-1036 -1041 0
-1036 -1042 0
-1036 -1043 0
-1036 -1044 0
-1036 -1045 0
-1036 -1046 0
-1036 -1047 0
-1036 -1048 0
-1036 -1049 0
-1036 -1050 0
-1036 -1051 0
-1036 -1052 0
-1036 -1053 0
-1036 -1054 0
-1036 -1055 0
-1036 -1056 0
-1036 -1057 0
-1036 -1058 0
-1036 -1059 0
-1036 -1060 0
-1036 -1061 0
-1036 -1062 0
-1036 -1063 0
-1036 -1064 0
-1036 -1065 0
-1036 -1066 0
-1036 -1067 0
-1036 -1068 0
-1036 -1069 0
-1036 -1070 0
-1036 -1071 0
-1036 -1072 0
-1036 -1073 0
-1036 -1074 0
-1036 -1075 0
-1036 -1076 0
-1036 -1077 0
-1036 -1078 0
-1036 -1079 0
-1036 -1080 0
-1036 -1081 0
-1036 -1082 0
-1036 -1083 0
-1036 -1084 0
-1036 -1085 0
-1036 -1086 0
-1036 -1087 0
-1036 -1088 0
-1036 -1089 0
-1036 -1090 0
-1036 -1091 0
-1036 -1092 0
-1036 -1093 0
-1037 -1038 0
-1037 -1039 0
-1037 -1040 0
-1037 -1041 0
-1037 -1042 0
-1037 -1043 0
-1037 -1044 0
-1037 -1045 0
-1037 -1046 0
-1037 -1047 0
-1037 -1048 0
-1037 -1049 0
-1037 -1050 0
-1037 -1051 0
-1037 -1052 0
-1037 -1053 0
-1037 -1054 0
-1037 -1055 0
-1037 -1056 0
-1037 -1057 0
-1037 -1058 0
-1037 -1059 0
-1037 -1060 0
-1037 -1061 0
-1037 -1062 0
-1037 -1063 0
-1037 -1064 0
-1037 -1065 0
-1037 -1066 0
-1037 -1067 0
-1037 -1068 0
-1037 -1069 0
-1037 -1070 0
-1037 -1071 0
-1037 -1072 0
-1037 -1073 0
-1037 -1074 0
-1037 -1075 0
-1037 -1076 0
-1037 -1077 0
-1037 -1078 0
-1037 -1079 0
-1037 -1080 0
-1037 -1081 0
-1037 -1082 0
-1037 -1083 0
-1037 -1084 0
-1037 -1085 0
-1037 -1086 0
-1037 -1087 0
-1037 -1088 0
-1037 -1089 0
-1037 -1090 0
-1037 -1091 0
-1037 -1092 0
-1037 -1093 0
-1038 -1039 0
-1038 -1040 0
-1038 -1041 0
-1038 -1042 0
-1038 -1043 0
-1038 -1044 0
-1038 -1045 0
-1038 -1046 0
-1038 -1047 0
-1038 -1048 0
-1038 -1049 0
-1038 -1050 0
-1038 -1051 0
-1038 -1052 0
-1038 -1053 0
-1038 -1054 0
-1038 -1055 0
-1038 -1056 0
-1038 -1057 0
-1038 -1058 0
-1038 -1059 0
-1038 -1060 0
-1038 -1061 0
-1038 -1062 0
-1038 -1063 0
-1038 -1064 0
-1038 -1065 0
-1038 -1066 0
-1038 -1067 0
-1038 -1068 0
-1038 -1069 0
-1038 -1070 0
-1038 -1071 0
-1038 -1072 0
-1038 -1073 0
-1038 -1074 0
-1038 -1075 0
-1038 -1076 0
-1038 -1077 0
-1038 -1078 0
-1038 -1079 0
-1038 -1080 0
-1038 -1081 0
-1038 -1082 0
-1038 -1083 0
-1038 -1084 0
-1038 -1085 0
-1038 -1086 0
-1038 -1087 0
-1038 -1088 0
-1038 -1089 0
-1038 -1090 0
-1038 -1091 0
-1038 -1092 0
-1038 -1093 0
-1039 -1040 0
-1039 -1041 0
-1039 -1042 0
-1039 -1043 0
-1039 -1044 0
-1039 -1045 0
-1039 -1046 0
-1039 -1047 0
-1039 -1048 0
-1039 -1049 0
-1039 -1050 0
-1039 -1051 0
-1039 -1052 0
-1039 -1053 0
-1039 -1054 0
-1039 -1055 0
-1039 -1056 0
-1039 -1057 0
-1039 -1058 0
-1039 -1059 0
-1039 -1060 0
-1039 -1061 0
-1039 -1062 0
-1039 -1063 0
-1039 -1064 0
-1039 -1065 0
-1039 -1066 0
-1039 -1067 0
-1039 -1068 0
-1039 -1069 0
-1039 -1070 0
-1039 -1071 0
-1039 -1072 0
-1039 -1073 0
-1039 -1074 0
-1039 -1075 0
-1039 -1076 0
-1039 -1077 0
-1039 -1078 0
-1039 -1079 0
-1039 -1080 0
-1039 -1081 0
-1039 -1082 0
-1039 -1083 0
-1039 -1084 0
-1039 -1085 0
-1039 -1086 0
-1039 -1087 0
-1039 -1088 0
-1039 -1089 0
-1039 -1090 0
-1039 -1091 0
-1039 -1092 0
-1039 -1093 0
-1040 -1041 0
-1040 -1042 0
-1040 -1043 0
-1040 -1044 0
-1040 -1045 0
-1040 -1046 0
-1040 -1047 0
-1040 -1048 0
-1040 -1049 0
-1040 -1050 0
-1040 -1051 0
-1040 -1052 0
-1040 -1053 0
-1040 -1054 0
-1040 -1055 0
-1040 -1056 0
-1040 -1057 0
-1040 -1058 0
-1040 -1059 0
-1040 -1060 0
-1040 -1061 0
-1040 -1062 0
-1040 -1063 0
-1040 -1064 0
-1040 -1065 0
-1040 -1066 0
-1040 -1067 0
-1040 -1068 0
-1040 -1069 0
-1040 -1070 0
-1040 -1071 0
-1040 -1072 0
-1040 -1073 0
-1040 -1074 0
-1040 -1075 0
-1040 -1076 0
-1040 -1077 0
-1040 -1078 0
-1040 -1079 0
-1040 -1080 0
-1040 -1081 0
-1040 -1082 0
-1040 -1083 0
-1040 -1084 0
-1040 -1085 0
-1040 -1086 0
-1040 -1087 0
-1040 -1088 0
-1040 -1089 0
-1040 -1090 0
-1040 -1091 0
-1040 -1092 0
-1040 -1093 0
-1041 -1042 0
-1041 -1043 0
-1041 -1044 0
-1041 -1045 0
-1041 -1046 0
-1041 -1047 0
-1041 -1048 0
-1041 -1049 0
-1041 -1050 0
-1041 -1051 0
-1041 -1052 0
-1041 -1053 0
-1041 -1054 0
-1041 -1055 0
-1041 -1056 0
-1041 -1057 0
-1041 -1058 0
-1041 -1059 0
-1041 -1060 0
-1041 -1061 0
-1041 -1062 0
-1041 -1063 0
-1041 -1064 0
-1041 -1065 0
-1041 -1066 0
-1041 -1067 0
-1041 -1068 0
-1041 -1069 0
-1041 -1070 0
-1041 -1071 0
-1041 -1072 0
-1041 -1073 0
-1041 -1074 0
-1041 -1075 0
-1041 -1076 0
-1041 -1077 0
-1041 -1078 0
-1041 -1079 0
-1041 -1080 0
-1041 -1081 0
-1041 -1082 0
-1041 -1083 0
-1041 -1084 0
-1041 -1085 0
-1041 -1086 0
-1041 -1087 0
-1041 -1088 0
-1041 -1089 0
-1041 -1090 0
-1041 -1091 0
-1041 -1092 0
-1041 -1093 0
-1042 -1043 0
-1042 -1044 0
-1042 -1045 0
-1042 -1046 0
-1042 -1047 0
-1042 -1048 0
-1042 -1049 0
-1042 -1050 0
-1042 -1051 0
-1042 -1052 0
-1042 -1053 0
-1042 -1054 0
-1042 -1055 0
-1042 -1056 0
-1042 -1057 0
-1042 -1058 0
-1042 -1059 0
-1042 -1060 0
-1042 -1061 0
-1042 -1062 0
-1042 -1063 0
-1042 -1064 0
-1042 -1065 0
-1042 -1066 0
-1042 -1067 0
-1042 -1068 0
-1042 -1069 0
-1042 -1070 0
-1042 -1071 0
-1042 -1072 0
-1042 -1073 0
-1042 -1074 0
-1042 -1075 0
-1042 -1076 0
-1042 -1077 0
-1042 -1078 0
-1042 -1079 0
-1042 -1080 0
-1042 -1081 0
-1042 -1082 0
-1042 -1083 0
-1042 -1084 0
-1042 -1085 0
-1042 -1086 0
-1042 -1087 0
-1042 -1088 0
-1042 -1089 0
-1042 -1090 0
-1042 -1091 0
-1042 -1092 0
-1042 -1093 0
-1043 -1044 0
-1043 -1045 0
-1043 -1046 0
-1043 -1047 0
-1043 -1048 0
-1043 -1049 0
-1043 -1050 0
-1043 -1051 0
-1043 -1052 0
-1043 -1053 0
-1043 -1054 0
-1043 -1055 0
-1043 -1056 0
-1043 -1057 0
-1043 -1058 0
-1043 -1059 0
-1043 -1060 0
-1043 -1061 0
-1043 -1062 0
-1043 -1063 0
-1043 -1064 0
-1043 -1065 0
-1043 -1066 0
-1043 -1067 0
-1043 -1068 0
-1043 -1069 0
-1043 -1070 0
-1043 -1071 0
-1043 -1072 0
-1043 -1073 0
-1043 -1074 0
-1043 -1075 0
-1043 -1076 0
-1043 -1077 0
-1043 -1078 0
-1043 -1079 0
-1043 -1080 0
-1043 -1081 0
-1043 -1082 0
-1043 -1083 0
-1043 -1084 0
-1043 -1085 0
-1043 -1086 0
-1043 -1087 0
-1043 -1088 0
-1043 -1089 0
-1043 -1090 0
-1043 -1091 0
-1043 -1092 0
-1043 -1093 0
-1044 -1045 0
-1044 -1046 0
-1044 -1047 0
-1044 -1048 0
-1044 -1049 0
-1044 -1050 0
-1044 -1051 0
-1044 -1052 0
-1044 -1053 0
-1044 -1054 0
-1044 -1055 0
-1044 -1056 0
-1044 -1057 0
-1044 -1058 0
-1044 -1059 0
-1044 -1060 0
-1044 -1061 0
-1044 -1062 0
-1044 -1063 0
-1044 -1064 0
-1044 -1065 0
-1044 -1066 0
-1044 -1067 0
-1044 -1068 0
-1044 -1069 0
-1044 -1070 0
-1044 -1071 0
-1044 -1072 0
-1044 -1073 0
-1044 -1074 0
-1044 -1075 0
-1044 -1076 0
-1044 -1077 0
-1044 -1078 0
-1044 -1079 0
-1044 -1080 0
-1044 -1081 0
-1044 -1082 0
-1044 -1083 0
-1044 -1084 0
-1044 -1085 0
-1044 -1086 0
-1044 -1087 0
-1044 -1088 0
-1044 -1089 0
-1044 -1090 0
-1044 -1091 0
-1044 -1092 0
-1044 -1093 0
-1045 -1046 0
-1045 -1047 0
-1045 -1048 0
-1045 -1049 0
-1045 -1050 0
-1045 -1051 0
-1045 -1052 0
-1045 -1053 0
-1045 -1054 0
-1045 -1055 0
-1045 -1056 0
-1045 -1057 0
-1045 -1058 0
-1045 -1059 0
-1045 -1060 0
-1045 -1061 0
-1045 -1062 0
-1045 -1063 0
-1045 -1064 0
-1045 -1065 0
-1045 -1066 0
-1045 -1067 0
-1045 -1068 0
-1045 -1069 0
-1045 -1070 0
-1045 -1071 0
-1045 -1072 0
-1045 -1073 0
-1045 -1074 0
-1045 -1075 0
-1045 -1076 0
-1045 -1077 0
-1045 -1078 0
-1045 -1079 0
-1045 -1080 0
-1045 -1081 0
-1045 -1082 0
-1045 -1083 0
-1045 -1084 0
-1045 -1085 0
-1045 -1086 0
-1045 -1087 0
-1045 -1088 0
-1045 -1089 0
-1045 -1090 0
-1045 -1091 0
-1045 -1092 0
-1045 -1093 0
-1046 -1047 0
-1046 -1048 0
-1046 -1049 0
-1046 -1050 0
-1046 -1051 0
-1046 -1052 0
-1046 -1053 0
-1046 -1054 0
-1046 -1055 0
-1046 -1056 0
-1046 -1057 0
-1046 -1058 0
-1046 -1059 0
-1046 -1060 0
-1046 -1061 0
-1046 -1062 0
-1046 -1063 0
-1046 -1064 0
-1046 -1065 0
-1046 -1066 0
-1046 -1067 0
-1046 -1068 0
-1046 -1069 0
-1046 -1070 0
-1046 -1071 0
-1046 -1072 0
-1046 -1073 0
-1046 -1074 0
-1046 -1075 0
-1046 -1076 0
-1046 -1077 0
-1046 -1078 0
-1046 -1079 0
-1046 -1080 0
-1046 -1081 0
-1046 -1082 0
-1046 -1083 0
-1046 -1084 0
-1046 -1085 0
-1046 -1086 0
-1046 -1087 0
-1046 -1088 0
-1046 -1089 0
-1046 -1090 0
-1046 -1091 0
-1046 -1092 0
-1046 -1093 0
-1047 -1048 0
-1047 -1049 0
-1047 -1050 0
-1047 -1051 0
-1047 -1052 0
-1047 -1053 0
-1047 -1054 0
-1047 -1055 0
-1047 -1056 0
-1047 -1057 0
-1047 -1058 0
-1047 -1059 0
-1047 -1060 0
-1047 -1061 0
-1047 -1062 0
-1047 -1063 0
-1047 -1064 0
-1047 -1065 0
-1047 -1066 0
-1047 -1067 0
-1047 -1068 0
-1047 -1069 0
-1047 -1070 0
-1047 -1071 0
-1047 -1072 0
-1047 -1073 0
-1047 -1074 0
-1047 -1075 0
-1047 -1076 0
-1047 -1077 0
-1047 -1078 0
-1047 -1079 0
-1047 -1080 0
-1047 -1081 0
-1047 -1082 0
-1047 -1083 0
-1047 -1084 0
-1047 -1085 0
-1047 -1086 0
-1047 -1087 0
-1047 -1088 0
-1047 -1089 0
-1047 -1090 0
-1047 -1091 0
-1047 -1092 0
-1047 -1093 0
-1048 -1049 0
-1048 -1050 0
-1048 -1051 0
-1048 -1052 0
-1048 -1053 0
-1048 -1054 0
-1048 -1055 0
-1048 -1056 0
-1048 -1057 0
-1048 -1058 0
-1048 -1059 0
-1048 -1060 0
-1048 -1061 0
-1048 -1062 0
-1048 -1063 0
-1048 -1064 0
-1048 -1065 0
-1048 -1066 0
-1048 -1067 0
-1048 -1068 0
-1048 -1069 0
-1048 -1070 0
-1048 -1071 0
-1048 -1072 0
-1048 -1073 0
-1048 -1074 0
-1048 -1075 0
-1048 -1076 0
-1048 -1077 0
-1048 -1078 0
-1048 -1079 0
-1048 -1080 0
-1048 -1081 0
-1048 -1082 0
-1048 -1083 0
-1048 -1084 0
-1048 -1085 0
-1048 -1086 0
-1048 -1087 0
-1048 -1088 0
-1048 -1089 0
-1048 -1090 0
-1048 -1091 0
-1048 -1092 0
-1048 -1093 0
-1049 -1050 0
-1049 -1051 0
-1049 -1052 0
-1049 -1053 0
-1049 -1054 0
-1049 -1055 0
-1049 -1056 0
-1049 -1057 0
-1049 -1058 0
-1049 -1059 0
-1049 -1060 0
-1049 -1061 0
-1049 -1062 0
-1049 -1063 0
-1049 -1064 0
-1049 -1065 0
-1049 -1066 0
-1049 -1067 0
-1049 -1068 0
-1049 -1069 0
-1049 -1070 0
-1049 -1071 0
-1049 -1072 0
-1049 -1073 0
-1049 -1074 0
-1049 -1075 0
-1049 -1076 0
-1049 -1077 0
-1049 -1078 0
-1049 -1079 0
-1049 -1080 0
-1049 -1081 0
-1049 -1082 0
-1049 -1083 0
-1049 -1084 0
-1049 -1085 0
-1049 -1086 0
-1049 -1087 0
-1049 -1088 0
-1049 -1089 0
-1049 -1090 0
-1049 -1091 0
-1049 -1092 0
-1049 -1093 0
-1050 -1051 0
-1050 -1052 0
-1050 -1053 0
-1050 -1054 0
-1050 -1055 0
-1050 -1056 0
-1050 -1057 0
-1050 -1058 0
-1050 -1059 0
-1050 -1060 0
-1050 -1061 0
-1050 -1062 0
-1050 -1063 0
-1050 -1064 0
-1050 -1065 0
-1050 -1066 0
-1050 -1067 0
-1050 -1068 0
-1050 -1069 0
-1050 -1070 0
-1050 -1071 0
-1050 -1072 0
-1050 -1073 0
-1050 -1074 0
-1050 -1075 0
-1050 -1076 0
-1050 -1077 0
-1050 -1078 0
-1050 -1079 0
-1050 -1080 0
-1050 -1081 0
-1050 -1082 0
-1050 -1083 0
-1050 -1084 0
-1050 -1085 0
-1050 -1086 0
-1050 -1087 0
-1050 -1088 0
-1050 -1089 0
-1050 -1090 0
-1050 -1091 0
-1050 -1092 0
-1050 -1093 0
-1051 -1052 0
-1051 -1053 0
-1051 -1054 0
-1051 -1055 0
-1051 -1056 0
-1051 -1057 0
-1051 -1058 0
-1051 -1059 0
-1051 -1060 0
-1051 -1061 0
-1051 -1062 0
-1051 -1063 0
-1051 -1064 0
-1051 -1065 0
-1051 -1066 0
-1051 -1067 0
-1051 -1068 0
-1051 -1069 0
-1051 -1070 0
-1051 -1071 0
-1051 -1072 0
-1051 -1073 0
-1051 -1074 0
-1051 -1075 0
-1051 -1076 0
-1051 -1077 0
-1051 -1078 0
-1051 -1079 0
-1051 -1080 0
-1051 -1081 0
-1051 -1082 0
-1051 -1083 0
-1051 -1084 0
-1051 -1085 0
-1051 -1086 0
-1051 -1087 0
-1051 -1088 0
-1051 -1089 0
-1051 -1090 0
-1051 -1091 0
-1051 -1092 0
-1051 -1093 0
-1052 -1053 0
-1052 -1054 0
-1052 -1055 0
-1052 -1056 0
-1052 -1057 0
-1052 -1058 0
-1052 -1059 0
-1052 -1060 0
-1052 -1061 0
-1052 -1062 0
-1052 -1063 0
-1052 -1064 0
-1052 -1065 0
-1052 -1066 0
-1052 -1067 0
-1052 -1068 0
-1052 -1069 0
-1052 -1070 0
-1052 -1071 0
-1052 -1072 0
-1052 -1073 0
-1052 -1074 0
-1052 -1075 0
-1052 -1076 0
-1052 -1077 0
-1052 -1078 0
-1052 -1079 0
-1052 -1080 0
-1052 -1081 0
-1052 -1082 0
-1052 -1083 0
-1052 -1084 0
-1052 -1085 0
-1052 -1086 0
-1052 -1087 0
-1052 -1088 0
-1052 -1089 0
-1052 -1090 0
-1052 -1091 0
-1052 -1092 0
-1052 -1093 0
-1053 -1054 0
-1053 -1055 0
-1053 -1056 0
-1053 -1057 0
-1053 -1058 0
-1053 -1059 0
-1053 -1060 0
-1053 -1061 0
-1053 -1062 0
-1053 -1063 0
-1053 -1064 0
-1053 -1065 0
-1053 -1066 0
-1053 -1067 0
-1053 -1068 0
-1053 -1069 0
-1053 -1070 0
-1053 -1071 0
-1053 -1072 0
-1053 -1073 0
-1053 -1074 0
-1053 -1075 0
-1053 -1076 0
-1053 -1077 0
-1053 -1078 0
-1053 -1079 0
-1053 -1080 0
-1053 -1081 0
-1053 -1082 0
-1053 -1083 0
-1053 -1084 0
-1053 -1085 0
-1053 -1086 0
-1053 -1087 0
-1053 -1088 0
-1053 -1089 0
-1053 -1090 0
-1053 -1091 0
-1053 -1092 0
-1053 -1093 0
-1054 -1055 0
-1054 -1056 0
-1054 -1057 0
-1054 -1058 0
-1054 -1059 0
-1054 -1060 0
-1054 -1061 0
-1054 -1062 0
-1054 -1063 0
-1054 -1064 0
-1054 -1065 0
-1054 -1066 0
-1054 -1067 0
-1054 -1068 0
-1054 -1069 0
-1054 -1070 0
-1054 -1071 0
-1054 -1072 0
-1054 -1073 0
-1054 -1074 0
-1054 -1075 0
-1054 -1076 0
-1054 -1077 0
-1054 -1078 0
-1054 -1079 0
-1054 -1080 0
-1054 -1081 0
-1054 -1082 0
-1054 -1083 0
-1054 -1084 0
-1054 -1085 0
-1054 -1086 0
-1054 -1087 0
-1054 -1088 0
-1054 -1089 0
-1054 -1090 0
-1054 -1091 0
-1054 -1092 0
-1054 -1093 0
-1055 -1056 0
-1055 -1057 0
-1055 -1058 0
-1055 -1059 0
-1055 -1060 0
-1055 -1061 0
-1055 -1062 0
-1055 -1063 0
-1055 -1064 0
-1055 -1065 0
-1055 -1066 0
-1055 -1067 0
-1055 -1068 0
-1055 -1069 0
-1055 -1070 0
-1055 -1071 0
-1055 -1072 0
-1055 -1073 0
-1055 -1074 0
-1055 -1075 0
-1055 -1076 0
-1055 -1077 0
-1055 -1078 0
-1055 -1079 0
-1055 -1080 0
-1055 -1081 0
-1055 -1082 0
-1055 -1083 0
-1055 -1084 0
-1055 -1085 0
-1055 -1086 0
-1055 -1087 0
-1055 -1088 0
-1055 -1089 0
-1055 -1090 0
-1055 -1091 0
-1055 -1092 0
-1055 -1093 0
-1056 -1057 0
-1056 -1058 0
-1056 -1059 0
-1056 -1060 0
-1056 -1061 0
-1056 -1062 0
-1056 -1063 0
-1056 -1064 0
-1056 -1065 0
-1056 -1066 0
-1056 -1067 0
-1056 -1068 0
-1056 -1069 0
-1056 -1070 0
-1056 -1071 0
-1056 -1072 0
-1056 -1073 0
-1056 -1074 0
-1056 -1075 0
-1056 -1076 0
-1056 -1077 0
-1056 -1078 0
-1056 -1079 0
-1056 -1080 0
-1056 -1081 0
-1056 -1082 0
-1056 -1083 0
-1056 -1084 0
-1056 -1085 0
-1056 -1086 0
-1056 -1087 0
-1056 -1088 0
-1056 -1089 0
-1056 -1090 0
-1056 -1091 0
-1056 -1092 0
-1056 -1093 0
-1057 -1058 0
-1057 -1059 0
-1057 -1060 0
-1057 -1061 0
-1057 -1062 0
-1057 -1063 0
-1057 -1064 0
-1057 -1065 0
-1057 -1066 0
-1057 -1067 0
-1057 -1068 0
-1057 -1069 0
-1057 -1070 0
-1057 -1071 0
-1057 -1072 0
-1057 -1073 0
-1057 -1074 0
-1057 -1075 0
-1057 -1076 0
-1057 -1077 0
-1057 -1078 0
-1057 -1079 0
-1057 -1080 0
-1057 -1081 0
-1057 -1082 0
-1057 -1083 0
-1057 -1084 0
-1057 -1085 0
-1057 -1086 0
-1057 -1087 0
-1057 -1088 0
-1057 -1089 0
-1057 -1090 0
-1057 -1091 0
-1057 -1092 0
-1057 -1093 0
-1058 -1059 0
-1058 -1060 0
-1058 -1061 0
-1058 -1062 0
-1058 -1063 0
-1058 -1064 0
-1058 -1065 0
-1058 -1066 0
-1058 -1067 0
-1058 -1068 0
-1058 -1069 0
-1058 -1070 0
-1058 -1071 0
-1058 -1072 0
-1058 -1073 0
-1058 -1074 0
-1058 -1075 0
-1058 -1076 0
-1058 -1077 0
-1058 -1078 0
-1058 -1079 0
-1058 -1080 0
-1058 -1081 0
-1058 -1082 0
-1058 -1083 0
-1058 -1084 0
-1058 -1085 0
-1058 -1086 0
-1058 -1087 0
-1058 -1088 0
-1058 -1089 0
-1058 -1090 0
-1058 -1091 0
-1058 -1092 0
-1058 -1093 0
-1059 -1060 0
-1059 -1061 0
-1059 -1062 0
-1059 -1063 0
-1059 -1064 0
-1059 -1065 0
-1059 -1066 0
-1059 -1067 0
-1059 -1068 0
-1059 -1069 0
-1059 -1070 0
-1059 -1071 0
-1059 -1072 0
-1059 -1073 0
-1059 -1074 0
-1059 -1075 0
-1059 -1076 0
-1059 -1077 0
-1059 -1078 0
-1059 -1079 0
-1059 -1080 0
-1059 -1081 0
-1059 -1082 0
-1059 -1083 0
-1059 -1084 0
-1059 -1085 0
-1059 -1086 0
-1059 -1087 0
-1059 -1088 0
-1059 -1089 0
-1059 -1090 0
-1059 -1091 0
-1059 -1092 0
-1059 -1093 0
-1060 -1061 0
-1060 -1062 0
-1060 -1063 0
-1060 -1064 0
-1060 -1065 0
-1060 -1066 0
-1060 -1067 0
-1060 -1068 0
-1060 -1069 0
-1060 -1070 0
-1060 -1071 0
-1060 -1072 0
-1060 -1073 0
-1060 -1074 0
-1060 -1075 0
-1060 -1076 0
-1060 -1077 0
-1060 -1078 0
-1060 -1079 0
-1060 -1080 0
-1060 -1081 0
-1060 -1082 0
-1060 -1083 0
-1060 -1084 0
-1060 -1085 0
-1060 -1086 0
-1060 -1087 0
-1060 -1088 0
-1060 -1089 0
-1060 -1090 0
-1060 -1091 0
-1060 -1092 0
-1060 -1093 0
-1061 -1062 0
-1061 -1063 0
-1061 -1064 0
-1061 -1065 0
-1061 -1066 0
-1061 -1067 0
-1061 -1068 0
-1061 -1069 0
-1061 -1070 0
-1061 -1071 0
-1061 -1072 0
-1061 -1073 0
-1061 -1074 0
-1061 -1075 0
-1061 -1076 0
-1061 -1077 0
-1061 -1078 0
-1061 -1079 0
-1061 -1080 0
-1061 -1081 0
-1061 -1082 0
-1061 -1083 0
-1061 -1084 0
-1061 -1085 0
-1061 -1086 0
-1061 -1087 0
-1061 -1088 0
-1061 -1089 0
-1061 -1090 0
-1061 -1091 0
-1061 -1092 0
-1061 -1093 0
-1062 -1063 0
-1062 -1064 0
-1062 -1065 0
-1062 -1066 0
-1062 -1067 0
-1062 -1068 0
-1062 -1069 0
-1062 -1070 0
-1062 -1071 0
-1062 -1072 0
-1062 -1073 0
-1062 -1074 0
-1062 -1075 0
-1062 -1076 0
-1062 -1077 0
-1062 -1078 0
-1062 -1079 0
-1062 -1080 0
-1062 -1081 0
-1062 -1082 0
-1062 -1083 0
-1062 -1084 0
-1062 -1085 0
-1062 -1086 0
-1062 -1087 0
-1062 -1088 0
-1062 -1089 0
-1062 -1090 0
-1062 -1091 0
-1062 -1092 0
-1062 -1093 0
-1063 -1064 0
-1063 -1065 0
-1063 -1066 0
-1063 -1067 0
-1063 -1068 0
-1063 -1069 0
-1063 -1070 0
-1063 -1071 0
-1063 -1072 0
-1063 -1073 0
-1063 -1074 0
-1063 -1075 0
-1063 -1076 0
-1063 -1077 0
-1063 -1078 0
-1063 -1079 0
-1063 -1080 0
-1063 -1081 0
-1063 -1082 0
-1063 -1083 0
-1063 -1084 0
-1063 -1085 0
-1063 -1086 0
-1063 -1087 0
-1063 -1088 0
-1063 -1089 0
-1063 -1090 0
-1063 -1091 0
-1063 -1092 0
-1063 -1093 0
-1064 -1065 0
-1064 -1066 0
-1064 -1067 0
-1064 -1068 0
-1064 -1069 0
-1064 -1070 0
-1064 -1071 0
-1064 -1072 0
-1064 -1073 0
-1064 -1074 0
-1064 -1075 0
-1064 -1076 0
-1064 -1077 0
-1064 -1078 0
-1064 -1079 0
-1064 -1080 0
-1064 -1081 0
-1064 -1082 0
-1064 -1083 0
-1064 -1084 0
-1064 -1085 0
-1064 -1086 0
-1064 -1087 0
-1064 -1088 0
-1064 -1089 0
-1064 -1090 0
-1064 -1091 0
-1064 -1092 0
-1064 -1093 0
-1065 -1066 0
-1065 -1067 0
-1065 -1068 0
-1065 -1069 0
-1065 -1070 0
-1065 -1071 0
-1065 -1072 0
-1065 -1073 0
-1065 -1074 0
-1065 -1075 0
-1065 -1076 0
-1065 -1077 0
-1065 -1078 0
-1065 -1079 0
-1065 -1080 0
-1065 -1081 0
-1065 -1082 0
-1065 -1083 0
-1065 -1084 0
-1065 -1085 0
-1065 -1086 0
-1065 -1087 0
-1065 -1088 0
-1065 -1089 0
-1065 -1090 0
-1065 -1091 0
-1065 -1092 0
-1065 -1093 0
-1066 -1067 0
-1066 -1068 0
-1066 -1069 0
-1066 -1070 0
-1066 -1071 0
-1066 -1072 0
-1066 -1073 0
-1066 -1074 0
-1066 -1075 0
-1066 -1076 0
-1066 -1077 0
-1066 -1078 0
-1066 -1079 0
-1066 -1080 0
-1066 -1081 0
-1066 -1082 0
-1066 -1083 0
-1066 -1084 0
-1066 -1085 0
-1066 -1086 0
-1066 -1087 0
-1066 -1088 0
-1066 -1089 0
-1066 -1090 0
-1066 -1091 0
-1066 -1092 0
-1066 -1093 0
-1067 -1068 0
-1067 -1069 0
-1067 -1070 0
-1067 -1071 0
-1067 -1072 0
-1067 -1073 0
-1067 -1074 0
-1067 -1075 0
-1067 -1076 0
-1067 -1077 0
-1067 -1078 0
-1067 -1079 0
-1067 -1080 0
-1067 -1081 0
-1067 -1082 0
-1067 -1083 0
-1067 -1084 0
-1067 -1085 0
-1067 -1086 0
-1067 -1087 0
-1067 -1088 0
-1067 -1089 0
-1067 -1090 0
-1067 -1091 0
-1067 -1092 0
-1067 -1093 0
-1068 -1069 0
-1068 -1070 0
-1068 -1071 0
-1068 -1072 0
-1068 -1073 0
-1068 -1074 0
-1068 -1075 0
-1068 -1076 0
-1068 -1077 0
-1068 -1078 0
-1068 -1079 0
-1068 -1080 0
-1068 -1081 0
-1068 -1082 0
-1068 -1083 0
-1068 -1084 0
-1068 -1085 0
-1068 -1086 0
-1068 -1087 0
-1068 -1088 0
-1068 -1089 0
-1068 -1090 0
-1068 -1091 0
-1068 -1092 0
-1068 -1093 0
-1069 -1070 0
-1069 -1071 0
-1069 -1072 0
-1069 -1073 0
-1069 -1074 0
-1069 -1075 0
-1069 -1076 0
-1069 -1077 0
-1069 -1078 0
-1069 -1079 0
-1069 -1080 0
-1069 -1081 0
-1069 -1082 0
-1069 -1083 0
-1069 -1084 0
-1069 -1085 0
-1069 -1086 0
-1069 -1087 0
-1069 -1088 0
-1069 -1089 0
-1069 -1090 0
-1069 -1091 0
-1069 -1092 0
-1069 -1093 0
-1070 -1071 0
-1070 -1072 0
-1070 -1073 0
-1070 -1074 0
-1070 -1075 0
-1070 -1076 0
-1070 -1077 0
-1070 -1078 0
-1070 -1079 0
-1070 -1080 0
-1070 -1081 0
-1070 -1082 0
-1070 -1083 0
-1070 -1084 0
-1070 -1085 0
-1070 -1086 0
-1070 -1087 0
-1070 -1088 0
-1070 -1089 0
-1070 -1090 0
-1070 -1091 0
-1070 -1092 0
-1070 -1093 0
-1071 -1072 0
-1071 -1073 0
-1071 -1074 0
-1071 -1075 0
-1071 -1076 0
-1071 -1077 0
-1071 -1078 0
-1071 -1079 0
-1071 -1080 0
-1071 -1081 0
-1071 -1082 0
-1071 -1083 0
-1071 -1084 0
-1071 -1085 0
-1071 -1086 0
-1071 -1087 0
-1071 -1088 0
-1071 -1089 0
-1071 -1090 0
-1071 -1091 0
-1071 -1092 0
-1071 -1093 0
-1072 -1073 0
-1072 -1074 0
-1072 -1075 0
-1072 -1076 0
-1072 -1077 0
-1072 -1078 0
-1072 -1079 0
-1072 -1080 0
-1072 -1081 0
-1072 -1082 0
-1072 -1083 0
-1072 -1084 0
-1072 -1085 0
-1072 -1086 0
-1072 -1087 0
-1072 -1088 0
-1072 -1089 0
-1072 -1090 0
-1072 -1091 0
-1072 -1092 0
-1072 -1093 0
-1073 -1074 0
-1073 -1075 0
-1073 -1076 0
-1073 -1077 0
-1073 -1078 0
-1073 -1079 0
-1073 -1080 0
-1073 -1081 0
-1073 -1082 0
-1073 -1083 0
-1073 -1084 0
-1073 -1085 0
-1073 -1086 0
-1073 -1087 0
-1073 -1088 0
-1073 -1089 0
-1073 -1090 0
-1073 -1091 0
-1073 -1092 0
-1073 -1093 0
-1074 -1075 0
-1074 -1076 0
-1074 -1077 0
-1074 -1078 0
-1074 -1079 0
-1074 -1080 0
-1074 -1081 0
-1074 -1082 0
-1074 -1083 0
-1074 -1084 0
-1074 -1085 0
-1074 -1086 0
-1074 -1087 0
-1074 -1088 0
-1074 -1089 0
-1074 -1090 0
-1074 -1091 0
-1074 -1092 0
-1074 -1093 0
-1075 -1076 0
-1075 -1077 0
-1075 -1078 0
-1075 -1079 0
-1075 -1080 0
-1075 -1081 0
-1075 -1082 0
-1075 -1083 0
-1075 -1084 0
-1075 -1085 0
-1075 -1086 0
-1075 -1087 0
-1075 -1088 0
-1075 -1089 0
-1075 -1090 0
-1075 -1091 0
-1075 -1092 0
-1075 -1093 0
-1076 -1077 0
-1076 -1078 0
-1076 -1079 0
-1076 -1080 0
-1076 -1081 0
-1076 -1082 0
-1076 -1083 0
-1076 -1084 0
-1076 -1085 0
-1076 -1086 0
-1076 -1087 0
-1076 -1088 0
-1076 -1089 0
-1076 -1090 0
-1076 -1091 0
-1076 -1092 0
-1076 -1093 0
-1077 -1078 0
-1077 -1079 0
-1077 -1080 0
-1077 -1081 0
-1077 -1082 0
-1077 -1083 0
-1077 -1084 0
-1077 -1085 0
-1077 -1086 0
-1077 -1087 0
-1077 -1088 0
-1077 -1089 0
-1077 -1090 0
-1077 -1091 0
-1077 -1092 0
-1077 -1093 0
-1078 -1079 0
-1078 -1080 0
-1078 -1081 0
-1078 -1082 0
-1078 -1083 0
-1078 -1084 0
-1078 -1085 0
-1078 -1086 0
-1078 -1087 0
-1078 -1088 0
-1078 -1089 0
-1078 -1090 0
-1078 -1091 0
-1078 -1092 0
-1078 -1093 0
-1079 -1080 0
-1079 -1081 0
-1079 -1082 0
-1079 -1083 0
-1079 -1084 0
-1079 -1085 0
-1079 -1086 0
-1079 -1087 0
-1079 -1088 0
-1079 -1089 0
-1079 -1090 0
-1079 -1091 0
-1079 -1092 0
-1079 -1093 0
-1080 -1081 0
-1080 -1082 0
-1080 -1083 0
-1080 -1084 0
-1080 -1085 0
-1080 -1086 0
-1080 -1087 0
-1080 -1088 0
-1080 -1089 0
-1080 -1090 0
-1080 -1091 0
-1080 -1092 0
-1080 -1093 0
-1081 -1082 0
-1081 -1083 0
-1081 -1084 0
-1081 -1085 0
-1081 -1086 0
-1081 -1087 0
-1081 -1088 0
-1081 -1089 0
-1081 -1090 0
-1081 -1091 0
-1081 -1092 0
-1081 -1093 0
-1082 -1083 0
-1082 -1084 0
-1082 -1085 0
-1082 -1086 0
-1082 -1087 0
-1082 -1088 0
-1082 -1089 0
-1082 -1090 0
-1082 -1091 0
-1082 -1092 0
-1082 -1093 0
-1083 -1084 0
-1083 -1085 0
-1083 -1086 0
-1083 -1087 0
-1083 -1088 0
-1083 -1089 0
-1083 -1090 0
-1083 -1091 0
-1083 -1092 0
-1083 -1093 0
-1084 -1085 0
-1084 -1086 0
-1084 -1087 0
-1084 -1088 0
-1084 -1089 0
-1084 -1090 0
-1084 -1091 0
-1084 -1092 0
-1084 -1093 0
-1085 -1086 0
-1085 -1087 0
-1085 -1088 0
-1085 -1089 0
-1085 -1090 0
-1085 -1091 0
-1085 -1092 0
-1085 -1093 0
-1086 -1087 0
-1086 -1088 0
-1086 -1089 0
-1086 -1090 0
-1086 -1091 0
-1086 -1092 0
-1086 -1093 0
-1087 -1088 0
-1087 -1089 0
-1087 -1090 0
-1087 -1091 0
-1087 -1092 0
-1087 -1093 0
-1088 -1089 0
-1088 -1090 0
-1088 -1091 0
-1088 -1092 0
-1088 -1093 0
-1089 -1090 0
-1089 -1091 0
-1089 -1092 0
-1089 -1093 0
-1090 -1091 0
-1090 -1092 0
-1090 -1093 0
-1091 -1092 0
-1091 -1093 0
-1092 -1093 0
-1010 223 0
-1010 371 0
-1010 -193 0
-1010 -194 0
-1010 -195 0
-1010 -196 0
-1010 -197 0
-1010 -211 393 0
-1010 -211 -276 0
-1010 -211 -300 0
-1010 -211 -324 0
-1010 -211 -186 -208 0
-1010 -212 394 0
-1010 -212 -277 0
-1010 -212 -301 0
-1010 -212 -325 0
-1010 -212 -186 -209 0
-1010 -213 395 0
-1010 -213 -278 0
-1010 -213 -302 0
-1010 -213 -326 0
-1010 -213 -186 -210 0
-1010 -214 0
-1011 223 0
-1011 372 0
-1011 -192 0
-1011 -194 0
-1011 -195 0
-1011 -196 0
-1011 -197 0
-1011 -211 393 0
-1011 -211 -280 0
-1011 -211 -304 0
-1011 -211 -328 0
-1011 -211 -187 -208 0
-1011 -212 394 0
-1011 -212 -281 0
-1011 -212 -305 0
-1011 -212 -329 0
-1011 -212 -187 -209 0
-1011 -213 395 0
-1011 -213 -282 0
-1011 -213 -306 0
-1011 -213 -330 0
-1011 -213 -187 -210 0
-1011 -214 0
-1012 223 0
-1012 373 0
-1012 -192 0
-1012 -193 0
-1012 -195 0
-1012 -196 0
-1012 -197 0
-1012 -211 393 0
-1012 -211 -284 0
-1012 -211 -308 0
-1012 -211 -332 0
-1012 -211 -188 -208 0
-1012 -212 394 0
-1012 -212 -285 0
-1012 -212 -309 0
-1012 -212 -333 0
-1012 -212 -188 -209 0
-1012 -213 395 0
-1012 -213 -286 0
-1012 -213 -310 0
-1012 -213 -334 0
-1012 -213 -188 -210 0
-1012 -214 0
-1013 223 0
-1013 374 0
-1013 -192 0
-1013 -193 0
-1013 -194 0
-1013 -196 0
-1013 -197 0
-1013 -211 393 0
-1013 -211 -288 0
-1013 -211 -312 0
-1013 -211 -336 0
-1013 -211 -189 -208 0
-1013 -212 394 0
-1013 -212 -289 0
-1013 -212 -313 0
-1013 -212 -337 0
-1013 -212 -189 -209 0
-1013 -213 395 0
-1013 -213 -290 0
-1013 -213 -314 0
-1013 -213 -338 0
-1013 -213 -189 -210 0
-1013 -214 0
-1014 223 0
-1014 375 0
-1014 -192 0
-1014 -193 0
-1014 -194 0
-1014 -195 0
-1014 -197 0
-1014 -211 393 0
-1014 -211 -292 0
-1014 -211 -316 0
-1014 -211 -340 0
-1014 -211 -190 -208 0
-1014 -212 394 0
-1014 -212 -293 0
-1014 -212 -317 0
-1014 -212 -341 0
-1014 -212 -190 -209 0
-1014 -213 395 0
-1014 -213 -294 0
-1014 -213 -318 0
-1014 -213 -342 0
-1014 -213 -190 -210 0
-1014 -214 0
-1015 223 0
-1015 376 0
-1015 -192 0
-1015 -193 0
-1015 -194 0
-1015 -195 0
-1015 -196 0
-1015 -211 393 0
-1015 -211 -296 0
-1015 -211 -320 0
-1015 -211 -344 0
-1015 -211 -191 -208 0
-1015 -212 394 0
-1015 -212 -297 0
-1015 -212 -321 0
-1015 -212 -345 0
-1015 -212 -191 -209 0
-1015 -213 395 0
-1015 -213 -298 0
-1015 -213 -322 0
-1015 -213 -346 0
-1015 -213 -191 -210 0
-1015 -214 0
-1016 223 0
-1016 371 0
-1016 -199 0
-1016 -200 0
-1016 -201 0
-1016 -202 0
-1016 -215 393 0
-1016 -215 -276 0
-1016 -215 -300 0
-1016 -215 -324 0
-1016 -215 -186 -208 0
-1016 -216 394 0
-1016 -216 -277 0
-1016 -216 -301 0
-1016 -216 -325 0
-1016 -216 -186 -209 0
-1016 -217 395 0
-1016 -217 -278 0
-1016 -217 -302 0
-1016 -217 -326 0
-1016 -217 -186 -210 0
-1016 -218 0
-1017 223 0
-1017 372 0
-1017 -200 0
-1017 -201 0
-1017 -202 0
-1017 -215 393 0
-1017 -215 -280 0
-1017 -215 -304 0
-1017 -215 -328 0
-1017 -215 -187 -208 0
-1017 -216 394 0
-1017 -216 -281 0
-1017 -216 -305 0
-1017 -216 -329 0
-1017 -216 -187 -209 0
-1017 -217 395 0
-1017 -217 -282 0
-1017 -217 -306 0
-1017 -217 -330 0
-1017 -217 -187 -210 0
-1017 -218 0
-1018 223 0
-1018 373 0
-1018 -198 0
-1018 -201 0
-1018 -202 0
-1018 -215 393 0
-1018 -215 -284 0
-1018 -215 -308 0
-1018 -215 -332 0
-1018 -215 -188 -208 0
-1018 -216 394 0
-1018 -216 -285 0
-1018 -216 -309 0
-1018 -216 -333 0
-1018 -216 -188 -209 0
-1018 -217 395 0
-1018 -217 -286 0
-1018 -217 -310 0
-1018 -217 -334 0
-1018 -217 -188 -210 0
-1018 -218 0
-1019 223 0
-1019 374 0
-1019 -198 0
-1019 -199 0
-1019 -202 0
-1019 -215 393 0
-1019 -215 -288 0
-1019 -215 -312 0
-1019 -215 -336 0
-1019 -215 -189 -208 0
-1019 -216 394 0
-1019 -216 -289 0
-1019 -216 -313 0
-1019 -216 -337 0
-1019 -216 -189 -209 0
-1019 -217 395 0
-1019 -217 -290 0
-1019 -217 -314 0
-1019 -217 -338 0
-1019 -217 -189 -210 0
-1019 -218 0
-1020 223 0
-1020 375 0
-1020 -198 0
-1020 -199 0
-1020 -200 0
-1020 -215 393 0
-1020 -215 -292 0
-1020 -215 -316 0
-1020 -215 -340 0
-1020 -215 -190 -208 0
-1020 -216 394 0
-1020 -216 -293 0
-1020 -216 -317 0
-1020 -216 -341 0
-1020 -216 -190 -209 0
-1020 -217 395 0
-1020 -217 -294 0
-1020 -217 -318 0
-1020 -217 -342 0
-1020 -217 -190 -210 0
-1020 -218 0
-1021 223 0
-1021 376 0
-1021 -198 0
-1021 -199 0
-1021 -200 0
-1021 -201 0
-1021 -215 393 0
-1021 -215 -296 0
-1021 -215 -320 0
-1021 -215 -344 0
-1021 -215 -191 -208 0
-1021 -216 394 0
-1021 -216 -297 0
-1021 -216 -321 0
-1021 -216 -345 0
-1021 -216 -191 -209 0
-1021 -217 395 0
-1021 -217 -298 0
-1021 -217 -322 0
-1021 -217 -346 0
-1021 -217 -191 -210 0
-1021 -218 0
-1022 223 0
-1022 371 0
-1022 -204 0
-1022 -205 0
-1022 -206 0
-1022 -219 393 0
-1022 -219 -276 0
-1022 -219 -300 0
-1022 -219 -324 0
-1022 -219 -186 -208 0
-1022 -220 394 0
-1022 -220 -277 0
-1022 -220 -301 0
-1022 -220 -325 0
-1022 -220 -186 -209 0
-1022 -221 395 0
-1022 -221 -278 0
-1022 -221 -302 0
-1022 -221 -326 0
-1022 -221 -186 -210 0
-1022 -222 0
-1023 223 0
-1023 372 0
-1023 -205 0
-1023 -206 0
-1023 -219 393 0
-1023 -219 -280 0
-1023 -219 -304 0
-1023 -219 -328 0
-1023 -219 -187 -208 0
-1023 -220 394 0
-1023 -220 -281 0
-1023 -220 -305 0
-1023 -220 -329 0
-1023 -220 -187 -209 0
-1023 -221 395 0
-1023 -221 -282 0
-1023 -221 -306 0
-1023 -221 -330 0
-1023 -221 -187 -210 0
-1023 -222 0
-1024 223 0
-1024 373 0
-1024 -206 0
-1024 -219 393 0
-1024 -219 -284 0
-1024 -219 -308 0
-1024 -219 -332 0
-1024 -219 -188 -208 0
-1024 -220 394 0
-1024 -220 -285 0
-1024 -220 -309 0
-1024 -220 -333 0
-1024 -220 -188 -209 0
-1024 -221 395 0
-1024 -221 -286 0
-1024 -221 -310 0
-1024 -221 -334 0
-1024 -221 -188 -210 0
-1024 -222 0
-1025 223 0
-1025 374 0
-1025 -203 0
-1025 -219 393 0
-1025 -219 -288 0
-1025 -219 -312 0
-1025 -219 -336 0
-1025 -219 -189 -208 0
-1025 -220 394 0
-1025 -220 -289 0
-1025 -220 -313 0
-1025 -220 -337 0
-1025 -220 -189 -209 0
-1025 -221 395 0
-1025 -221 -290 0
-1025 -221 -314 0
-1025 -221 -338 0
-1025 -221 -189 -210 0
-1025 -222 0
-1026 223 0
-1026 375 0
-1026 -203 0
-1026 -204 0
-1026 -219 393 0
-1026 -219 -292 0
-1026 -219 -316 0
-1026 -219 -340 0
-1026 -219 -190 -208 0
-1026 -220 394 0
-1026 -220 -293 0
-1026 -220 -317 0
-1026 -220 -341 0
-1026 -220 -190 -209 0
-1026 -221 395 0
-1026 -221 -294 0
-1026 -221 -318 0
-1026 -221 -342 0
-1026 -221 -190 -210 0
-1026 -222 0
-1027 223 0
-1027 376 0
-1027 -203 0
-1027 -204 0
-1027 -205 0
-1027 -219 393 0
-1027 -219 -296 0
-1027 -219 -320 0
-1027 -219 -344 0
-1027 -219 -191 -208 0
-1027 -220 394 0
-1027 -220 -297 0
-1027 -220 -321 0
-1027 -220 -345 0
-1027 -220 -191 -209 0
-1027 -221 395 0
-1027 -221 -298 0
-1027 -221 -322 0
-1027 -221 -346 0
-1027 -221 -191 -210 0
-1027 -222 0
-1028 223 0
-1028 371 0
-1028 392 0
-1028 -275 0
-1028 -299 0
-1028 -323 0
-1028 -186 -207 0
-1029 223 0
-1029 372 0
-1029 392 0
-1029 -279 0
-1029 -303 0
-1029 -327 0
-1029 -187 -207 0
-1030 223 0
-1030 373 0
-1030 392 0
-1030 -283 0
-1030 -307 0
-1030 -331 0
-1030 -188 -207 0
-1031 223 0
-1031 374 0
-1031 392 0
-1031 -287 0
-1031 -311 0
-1031 -335 0
-1031 -189 -207 0
-1032 223 0
-1032 375 0
-1032 392 0
-1032 -291 0
-1032 -315 0
-1032 -339 0
-1032 -190 -207 0
-1033 223 0
-1033 376 0
-1033 392 0
-1033 -295 0
-1033 -319 0
-1033 -343 0
-1033 -191 -207 0
-1034 224 0
-1034 377 0
-1034 -187 0
-1034 -188 0
-1034 -189 0
-1034 -190 0
-1034 -191 0
-1034 -207 397 0
-1034 -207 -252 0
-1034 -207 -300 0
-1034 -207 -324 0
-1034 -207 -192 -212 0
-1034 -208 398 0
-1034 -208 -253 0
-1034 -208 -301 0
-1034 -208 -325 0
-1034 -208 -192 -213 0
-1034 -209 399 0
-1034 -209 -254 0
-1034 -209 -302 0
-1034 -209 -326 0
-1034 -209 -192 -214 0
-1034 -210 0
-1035 224 0
-1035 378 0
-1035 -186 0
-1035 -188 0
-1035 -189 0
-1035 -190 0
-1035 -191 0
-1035 -207 397 0
-1035 -207 -256 0
-1035 -207 -304 0
-1035 -207 -328 0
-1035 -207 -193 -212 0
-1035 -208 398 0
-1035 -208 -257 0
-1035 -208 -305 0
-1035 -208 -329 0
-1035 -208 -193 -213 0
-1035 -209 399 0
-1035 -209 -258 0
-1035 -209 -306 0
-1035 -209 -330 0
-1035 -209 -193 -214 0
-1035 -210 0
-1036 224 0
-1036 379 0
-1036 -186 0
-1036 -187 0
-1036 -189 0
-1036 -190 0
-1036 -191 0
-1036 -207 397 0
-1036 -207 -260 0
-1036 -207 -308 0
-1036 -207 -332 0
-1036 -207 -194 -212 0
-1036 -208 398 0
-1036 -208 -261 0
-1036 -208 -309 0
-1036 -208 -333 0
-1036 -208 -194 -213 0
-1036 -209 399 0
-1036 -209 -262 0
-1036 -209 -310 0
-1036 -209 -334 0
-1036 -209 -194 -214 0
-1036 -210 0
-1037 224 0
-1037 380 0
-1037 -186 0
-1037 -187 0
-1037 -188 0
-1037 -190 0
-1037 -191 0
-1037 -207 397 0
-1037 -207 -264 0
-1037 -207 -312 0
-1037 -207 -336 0
-1037 -207 -195 -212 0
-1037 -208 398 0
-1037 -208 -265 0
-1037 -208 -313 0
-1037 -208 -337 0
-1037 -208 -195 -213 0
-1037 -209 399 0
-1037 -209 -266 0
-1037 -209 -314 0
-1037 -209 -338 0
-1037 -209 -195 -214 0
-1037 -210 0
-1038 224 0
-1038 381 0
-1038 -186 0
-1038 -187 0
-1038 -188 0
-1038 -189 0
-1038 -191 0
-1038 -207 397 0
-1038 -207 -268 0
-1038 -207 -316 0
-1038 -207 -340 0
-1038 -207 -196 -212 0
-1038 -208 398 0
-1038 -208 -269 0
-1038 -208 -317 0
-1038 -208 -341 0
-1038 -208 -196 -213 0
-1038 -209 399 0
-1038 -209 -270 0
-1038 -209 -318 0
-1038 -209 -342 0
-1038 -209 -196 -214 0
-1038 -210 0
-1039 224 0
-1039 382 0
-1039 -186 0
-1039 -187 0
-1039 -188 0
-1039 -189 0
-1039 -190 0
-1039 -207 397 0
-1039 -207 -272 0
-1039 -207 -320 0
-1039 -207 -344 0
-1039 -207 -197 -212 0
-1039 -208 398 0
-1039 -208 -273 0
-1039 -208 -321 0
-1039 -208 -345 0
-1039 -208 -197 -213 0
-1039 -209 399 0
-1039 -209 -274 0
-1039 -209 -322 0
-1039 -209 -346 0
-1039 -209 -197 -214 0
-1039 -210 0
-1040 224 0
-1040 377 0
-1040 -199 0
-1040 -200 0
-1040 -201 0
-1040 -202 0
-1040 -215 397 0
-1040 -215 -252 0
-1040 -215 -300 0
-1040 -215 -324 0
-1040 -215 -192 -212 0
-1040 -216 398 0
-1040 -216 -253 0
-1040 -216 -301 0
-1040 -216 -325 0
-1040 -216 -192 -213 0
-1040 -217 399 0
-1040 -217 -254 0
-1040 -217 -302 0
-1040 -217 -326 0
-1040 -217 -192 -214 0
-1040 -218 0
-1041 224 0
-1041 378 0
-1041 -200 0
-1041 -201 0
-1041 -202 0
-1041 -215 397 0
-1041 -215 -256 0
-1041 -215 -304 0
-1041 -215 -328 0
-1041 -215 -193 -212 0
-1041 -216 398 0
-1041 -216 -257 0
-1041 -216 -305 0
-1041 -216 -329 0
-1041 -216 -193 -213 0
-1041 -217 399 0
-1041 -217 -258 0
-1041 -217 -306 0
-1041 -217 -330 0
-1041 -217 -193 -214 0
-1041 -218 0
-1042 224 0
-1042 379 0
-1042 -198 0
-1042 -201 0
-1042 -202 0
-1042 -215 397 0
-1042 -215 -260 0
-1042 -215 -308 0
-1042 -215 -332 0
-1042 -215 -194 -212 0
-1042 -216 398 0
-1042 -216 -261 0
-1042 -216 -309 0
-1042 -216 -333 0
-1042 -216 -194 -213 0
-1042 -217 399 0
-1042 -217 -262 0
-1042 -217 -310 0
-1042 -217 -334 0
-1042 -217 -194 -214 0
-1042 -218 0
-1043 224 0
-1043 380 0
-1043 -198 0
-1043 -199 0
-1043 -202 0
-1043 -215 397 0
-1043 -215 -264 0
-1043 -215 -312 0
-1043 -215 -336 0
-1043 -215 -195 -212 0
-1043 -216 398 0
-1043 -216 -265 0
-1043 -216 -313 0
-1043 -216 -337 0
-1043 -216 -195 -213 0
-1043 -217 399 0
-1043 -217 -266 0
-1043 -217 -314 0
-1043 -217 -338 0
-1043 -217 -195 -214 0
-1043 -218 0
-1044 224 0
-1044 381 0
-1044 -198 0
-1044 -199 0
-1044 -200 0
-1044 -215 397 0
-1044 -215 -268 0
-1044 -215 -316 0
-1044 -215 -340 0
-1044 -215 -196 -212 0
-1044 -216 398 0
-1044 -216 -269 0
-1044 -216 -317 0
-1044 -216 -341 0
-1044 -216 -196 -213 0
-1044 -217 399 0
-1044 -217 -270 0
-1044 -217 -318 0
-1044 -217 -342 0
-1044 -217 -196 -214 0
-1044 -218 0
-1045 224 0
-1045 382 0
-1045 -198 0
-1045 -199 0
-1045 -200 0
-1045 -201 0
-1045 -215 397 0
-1045 -215 -272 0
-1045 -215 -320 0
-1045 -215 -344 0
-1045 -215 -197 -212 0
-1045 -216 398 0
-1045 -216 -273 0
-1045 -216 -321 0
-1045 -216 -345 0
-1045 -216 -197 -213 0
-1045 -217 399 0
-1045 -217 -274 0
-1045 -217 -322 0
-1045 -217 -346 0
-1045 -217 -197 -214 0
-1045 -218 0
-1046 224 0
-1046 377 0
-1046 -204 0
-1046 -205 0
-1046 -206 0
-1046 -219 397 0
-1046 -219 -252 0
-1046 -219 -300 0
-1046 -219 -324 0
-1046 -219 -192 -212 0
-1046 -220 398 0
-1046 -220 -253 0
-1046 -220 -301 0
-1046 -220 -325 0
-1046 -220 -192 -213 0
-1046 -221 399 0
-1046 -221 -254 0
-1046 -221 -302 0
-1046 -221 -326 0
-1046 -221 -192 -214 0
-1046 -222 0
-1047 224 0
-1047 378 0
-1047 -205 0
-1047 -206 0
-1047 -219 397 0
-1047 -219 -256 0
-1047 -219 -304 0
-1047 -219 -328 0
-1047 -219 -193 -212 0
-1047 -220 398 0
-1047 -220 -257 0
-1047 -220 -305 0
-1047 -220 -329 0
-1047 -220 -193 -213 0
-1047 -221 399 0
-1047 -221 -258 0
-1047 -221 -306 0
-1047 -221 -330 0
-1047 -221 -193 -214 0
-1047 -222 0
-1048 224 0
-1048 379 0
-1048 -206 0
-1048 -219 397 0
-1048 -219 -260 0
-1048 -219 -308 0
-1048 -219 -332 0
-1048 -219 -194 -212 0
-1048 -220 398 0
-1048 -220 -261 0
-1048 -220 -309 0
-1048 -220 -333 0
-1048 -220 -194 -213 0
-1048 -221 399 0
-1048 -221 -262 0
-1048 -221 -310 0
-1048 -221 -334 0
-1048 -221 -194 -214 0
-1048 -222 0
-1049 224 0
-1049 380 0
-1049 -203 0
-1049 -219 397 0
-1049 -219 -264 0
-1049 -219 -312 0
-1049 -219 -336 0
-1049 -219 -195 -212 0
-1049 -220 398 0
-1049 -220 -265 0
-1049 -220 -313 0
-1049 -220 -337 0
-1049 -220 -195 -213 0
-1049 -221 399 0
-1049 -221 -266 0
-1049 -221 -314 0
-1049 -221 -338 0
-1049 -221 -195 -214 0
-1049 -222 0
-1050 224 0
-1050 381 0
-1050 -203 0
-1050 -204 0
-1050 -219 397 0
-1050 -219 -268 0
-1050 -219 -316 0
-1050 -219 -340 0
-1050 -219 -196 -212 0
-1050 -220 398 0
-1050 -220 -269 0
-1050 -220 -317 0
-1050 -220 -341 0
-1050 -220 -196 -213 0
-1050 -221 399 0
-1050 -221 -270 0
-1050 -221 -318 0
-1050 -221 -342 0
-1050 -221 -196 -214 0
-1050 -222 0
-1051 224 0
-1051 382 0
-1051 -203 0
-1051 -204 0
-1051 -205 0
-1051 -219 397 0
-1051 -219 -272 0
-1051 -219 -320 0
-1051 -219 -344 0
-1051 -219 -197 -212 0
-1051 -220 398 0
-1051 -220 -273 0
-1051 -220 -321 0
-1051 -220 -345 0
-1051 -220 -197 -213 0
-1051 -221 399 0
-1051 -221 -274 0
-1051 -221 -322 0
-1051 -221 -346 0
-1051 -221 -197 -214 0
-1051 -222 0
-1052 224 0
-1052 377 0
-1052 396 0
-1052 -251 0
-1052 -299 0
-1052 -323 0
-1052 -192 -211 0
-1053 224 0
-1053 378 0
-1053 396 0
-1053 -255 0
-1053 -303 0
-1053 -327 0
-1053 -193 -211 0
-1054 224 0
-1054 379 0
-1054 396 0
-1054 -259 0
-1054 -307 0
-1054 -331 0
-1054 -194 -211 0
-1055 224 0
-1055 380 0
-1055 396 0
-1055 -263 0
-1055 -311 0
-1055 -335 0
-1055 -195 -211 0
-1056 224 0
-1056 381 0
-1056 396 0
-1056 -267 0
-1056 -315 0
-1056 -339 0
-1056 -196 -211 0
-1057 224 0
-1057 382 0
-1057 396 0
-1057 -271 0
-1057 -319 0
-1057 -343 0
-1057 -197 -211 0
-1058 225 0
-1058 383 0
-1058 -188 0
-1058 -189 0
-1058 -190 0
-1058 -191 0
-1058 -207 401 0
-1058 -207 -252 0
-1058 -207 -256 0
-1058 -207 -276 0
-1058 -207 -280 0
-1058 -207 -324 0
-1058 -207 -328 0
-1058 -207 -198 -216 0
-1058 -208 402 0
-1058 -208 -253 0
-1058 -208 -257 0
-1058 -208 -277 0
-1058 -208 -281 0
-1058 -208 -325 0
-1058 -208 -329 0
-1058 -208 -198 -217 0
-1058 -209 403 0
-1058 -209 -254 0
-1058 -209 -258 0
-1058 -209 -278 0
-1058 -209 -282 0
-1058 -209 -326 0
-1058 -209 -330 0
-1058 -209 -198 -218 0
-1058 -210 0
-1059 225 0
-1059 384 0
-1059 -186 0
-1059 -189 0
-1059 -190 0
-1059 -191 0
-1059 -207 401 0
-1059 -207 -256 0
-1059 -207 -260 0
-1059 -207 -280 0
-1059 -207 -284 0
-1059 -207 -328 0
-1059 -207 -332 0
-1059 -207 -199 -216 0
-1059 -208 402 0
-1059 -208 -257 0
-1059 -208 -261 0
-1059 -208 -281 0
-1059 -208 -285 0
-1059 -208 -329 0
-1059 -208 -333 0
-1059 -208 -199 -217 0
-1059 -209 403 0
-1059 -209 -258 0
-1059 -209 -262 0
-1059 -209 -282 0
-1059 -209 -286 0
-1059 -209 -330 0
-1059 -209 -334 0
-1059 -209 -199 -218 0
-1059 -210 0
-1060 225 0
-1060 385 0
-1060 -186 0
-1060 -187 0
-1060 -190 0
-1060 -191 0
-1060 -207 401 0
-1060 -207 -260 0
-1060 -207 -264 0
-1060 -207 -284 0
-1060 -207 -288 0
-1060 -207 -332 0
-1060 -207 -336 0
-1060 -207 -200 -216 0
-1060 -208 402 0
-1060 -208 -261 0
-1060 -208 -265 0
-1060 -208 -285 0
-1060 -208 -289 0
-1060 -208 -333 0
-1060 -208 -337 0
-1060 -208 -200 -217 0
-1060 -209 403 0
-1060 -209 -262 0
-1060 -209 -266 0
-1060 -209 -286 0
-1060 -209 -290 0
-1060 -209 -334 0
-1060 -209 -338 0
-1060 -209 -200 -218 0
-1060 -210 0
-1061 225 0
-1061 386 0
-1061 -186 0
-1061 -187 0
-1061 -188 0
-1061 -191 0
-1061 -207 401 0
-1061 -207 -264 0
-1061 -207 -268 0
-1061 -207 -288 0
-1061 -207 -292 0
-1061 -207 -336 0
-1061 -207 -340 0
-1061 -207 -201 -216 0
-1061 -208 402 0
-1061 -208 -265 0
-1061 -208 -269 0
-1061 -208 -289 0
-1061 -208 -293 0
-1061 -208 -337 0
-1061 -208 -341 0
-1061 -208 -201 -217 0
-1061 -209 403 0
-1061 -209 -266 0
-1061 -209 -270 0
-1061 -209 -290 0
-1061 -209 -294 0
-1061 -209 -338 0
-1061 -209 -342 0
-1061 -209 -201 -218 0
-1061 -210 0
-1062 225 0
-1062 387 0
-1062 -186 0
-1062 -187 0
-1062 -188 0
-1062 -189 0
-1062 -207 401 0
-1062 -207 -268 0
-1062 -207 -272 0
-1062 -207 -292 0
-1062 -207 -296 0
-1062 -207 -340 0
-1062 -207 -344 0
-1062 -207 -202 -216 0
-1062 -208 402 0
-1062 -208 -269 0
-1062 -208 -273 0
-1062 -208 -293 0
-1062 -208 -297 0
-1062 -208 -341 0
-1062 -208 -345 0
-1062 -208 -202 -217 0
-1062 -209 403 0
-1062 -209 -270 0
-1062 -209 -274 0
-1062 -209 -294 0
-1062 -209 -298 0
-1062 -209 -342 0
-1062 -209 -346 0
-1062 -209 -202 -218 0
-1062 -210 0
-1063 225 0
-1063 383 0
-1063 -194 0
-1063 -195 0
-1063 -196 0
-1063 -197 0
-1063 -211 401 0
-1063 -211 -252 0
-1063 -211 -256 0
-1063 -211 -276 0
-1063 -211 -280 0
-1063 -211 -324 0
-1063 -211 -328 0
-1063 -211 -198 -216 0
-1063 -212 402 0
-1063 -212 -253 0
-1063 -212 -257 0
-1063 -212 -277 0
-1063 -212 -281 0
-1063 -212 -325 0
-1063 -212 -329 0
-1063 -212 -198 -217 0
-1063 -213 403 0
-1063 -213 -254 0
-1063 -213 -258 0
-1063 -213 -278 0
-1063 -213 -282 0
-1063 -213 -326 0
-1063 -213 -330 0
-1063 -213 -198 -218 0
-1063 -214 0
-1064 225 0
-1064 384 0
-1064 -192 0
-1064 -195 0
-1064 -196 0
-1064 -197 0
-1064 -211 401 0
-1064 -211 -256 0
-1064 -211 -260 0
-1064 -211 -280 0
-1064 -211 -284 0
-1064 -211 -328 0
-1064 -211 -332 0
-1064 -211 -199 -216 0
-1064 -212 402 0
-1064 -212 -257 0
-1064 -212 -261 0
-1064 -212 -281 0
-1064 -212 -285 0
-1064 -212 -329 0
-1064 -212 -333 0
-1064 -212 -199 -217 0
-1064 -213 403 0
-1064 -213 -258 0
-1064 -213 -262 0
-1064 -213 -282 0
-1064 -213 -286 0
-1064 -213 -330 0
-1064 -213 -334 0
-1064 -213 -199 -218 0
-1064 -214 0
-1065 225 0
-1065 385 0
-1065 -192 0
-1065 -193 0
-1065 -196 0
-1065 -197 0
-1065 -211 401 0
-1065 -211 -260 0
-1065 -211 -264 0
-1065 -211 -284 0
-1065 -211 -288 0
-1065 -211 -332 0
-1065 -211 -336 0
-1065 -211 -200 -216 0
-1065 -212 402 0
-1065 -212 -261 0
-1065 -212 -265 0
-1065 -212 -285 0
-1065 -212 -289 0
-1065 -212 -333 0
-1065 -212 -337 0
-1065 -212 -200 -217 0
-1065 -213 403 0
-1065 -213 -262 0
-1065 -213 -266 0
-1065 -213 -286 0
-1065 -213 -290 0
-1065 -213 -334 0
-1065 -213 -338 0
-1065 -213 -200 -218 0
-1065 -214 0
-1066 225 0
-1066 386 0
-1066 -192 0
-1066 -193 0
-1066 -194 0
-1066 -197 0
-1066 -211 401 0
-1066 -211 -264 0
-1066 -211 -268 0
-1066 -211 -288 0
-1066 -211 -292 0
-1066 -211 -336 0
-1066 -211 -340 0
-1066 -211 -201 -216 0
-1066 -212 402 0
-1066 -212 -265 0
-1066 -212 -269 0
-1066 -212 -289 0
-1066 -212 -293 0
-1066 -212 -337 0
-1066 -212 -341 0
-1066 -212 -201 -217 0
-1066 -213 403 0
-1066 -213 -266 0
-1066 -213 -270 0
-1066 -213 -290 0
-1066 -213 -294 0
-1066 -213 -338 0
-1066 -213 -342 0
-1066 -213 -201 -218 0
-1066 -214 0
-1067 225 0
-1067 387 0
-1067 -192 0
-1067 -193 0
-1067 -194 0
-1067 -195 0
-1067 -211 401 0
-1067 -211 -268 0
-1067 -211 -272 0
-1067 -211 -292 0
-1067 -211 -296 0
-1067 -211 -340 0
-1067 -211 -344 0
-1067 -211 -202 -216 0
-1067 -212 402 0
-1067 -212 -269 0
-1067 -212 -273 0
-1067 -212 -293 0
-1067 -212 -297 0
-1067 -212 -341 0
-1067 -212 -345 0
-1067 -212 -202 -217 0
-1067 -213 403 0
-1067 -213 -270 0
-1067 -213 -274 0
-1067 -213 -294 0
-1067 -213 -298 0
-1067 -213 -342 0
-1067 -213 -346 0
-1067 -213 -202 -218 0
-1067 -214 0
-1068 225 0
-1068 383 0
-1068 -205 0
-1068 -206 0
-1068 -219 401 0
-1068 -219 -252 0
-1068 -219 -256 0
-1068 -219 -276 0
-1068 -219 -280 0
-1068 -219 -324 0
-1068 -219 -328 0
-1068 -219 -198 -216 0
-1068 -220 402 0
-1068 -220 -253 0
-1068 -220 -257 0
-1068 -220 -277 0
-1068 -220 -281 0
-1068 -220 -325 0
-1068 -220 -329 0
-1068 -220 -198 -217 0
-1068 -221 403 0
-1068 -221 -254 0
-1068 -221 -258 0
-1068 -221 -278 0
-1068 -221 -282 0
-1068 -221 -326 0
-1068 -221 -330 0
-1068 -221 -198 -218 0
-1068 -222 0
-1069 225 0
-1069 384 0
-1069 -206 0
-1069 -219 401 0
-1069 -219 -256 0
-1069 -219 -260 0
-1069 -219 -280 0
-1069 -219 -284 0
-1069 -219 -328 0
-1069 -219 -332 0
-1069 -219 -199 -216 0
-1069 -220 402 0
-1069 -220 -257 0
-1069 -220 -261 0
-1069 -220 -281 0
-1069 -220 -285 0
-1069 -220 -329 0
-1069 -220 -333 0
-1069 -220 -199 -217 0
-1069 -221 403 0
-1069 -221 -258 0
-1069 -221 -262 0
-1069 -221 -282 0
-1069 -221 -286 0
-1069 -221 -330 0
-1069 -221 -334 0
-1069 -221 -199 -218 0
-1069 -222 0
-1070 225 0
-1070 385 0
-1070 -219 401 0
-1070 -219 -260 0
-1070 -219 -264 0
-1070 -219 -284 0
-1070 -219 -288 0
-1070 -219 -332 0
-1070 -219 -336 0
-1070 -219 -200 -216 0
-1070 -220 402 0
-1070 -220 -261 0
-1070 -220 -265 0
-1070 -220 -285 0
-1070 -220 -289 0
-1070 -220 -333 0
-1070 -220 -337 0
-1070 -220 -200 -217 0
-1070 -221 403 0
-1070 -221 -262 0
-1070 -221 -266 0
-1070 -221 -286 0
-1070 -221 -290 0
-1070 -221 -334 0
-1070 -221 -338 0
-1070 -221 -200 -218 0
-1070 -222 0
-1071 225 0
-1071 386 0
-1071 -203 0
-1071 -219 401 0
-1071 -219 -264 0
-1071 -219 -268 0
-1071 -219 -288 0
-1071 -219 -292 0
-1071 -219 -336 0
-1071 -219 -340 0
-1071 -219 -201 -216 0
-1071 -220 402 0
-1071 -220 -265 0
-1071 -220 -269 0
-1071 -220 -289 0
-1071 -220 -293 0
-1071 -220 -337 0
-1071 -220 -341 0
-1071 -220 -201 -217 0
-1071 -221 403 0
-1071 -221 -266 0
-1071 -221 -270 0
-1071 -221 -290 0
-1071 -221 -294 0
-1071 -221 -338 0
-1071 -221 -342 0
-1071 -221 -201 -218 0
-1071 -222 0
-1072 225 0
-1072 387 0
-1072 -203 0
-1072 -204 0
-1072 -219 401 0
-1072 -219 -268 0
-1072 -219 -272 0
-1072 -219 -292 0
-1072 -219 -296 0
-1072 -219 -340 0
-1072 -219 -344 0
-1072 -219 -202 -216 0
-1072 -220 402 0
-1072 -220 -269 0
-1072 -220 -273 0
-1072 -220 -293 0
-1072 -220 -297 0
-1072 -220 -341 0
-1072 -220 -345 0
-1072 -220 -202 -217 0
-1072 -221 403 0
-1072 -221 -270 0
-1072 -221 -274 0
-1072 -221 -294 0
-1072 -221 -298 0
-1072 -221 -342 0
-1072 -221 -346 0
-1072 -221 -202 -218 0
-1072 -222 0
-1073 225 0
-1073 383 0
-1073 400 0
-1073 -251 0
-1073 -255 0
-1073 -275 0
-1073 -279 0
-1073 -323 0
-1073 -327 0
-1073 -198 -215 0
-1074 225 0
-1074 384 0
-1074 400 0
-1074 -255 0
-1074 -259 0
-1074 -279 0
-1074 -283 0
-1074 -327 0
-1074 -331 0
-1074 -199 -215 0
-1075 225 0
-1075 385 0
-1075 400 0
-1075 -259 0
-1075 -263 0
-1075 -283 0
-1075 -287 0
-1075 -331 0
-1075 -335 0
-1075 -200 -215 0
-1076 225 0
-1076 386 0
-1076 400 0
-1076 -263 0
-1076 -267 0
-1076 -287 0
-1076 -291 0
-1076 -335 0
-1076 -339 0
-1076 -201 -215 0
-1077 225 0
-1077 387 0
-1077 400 0
-1077 -267 0
-1077 -271 0
-1077 -291 0
-1077 -295 0
-1077 -339 0
-1077 -343 0
-1077 -202 -215 0
-1078 226 0
-1078 388 0
-1078 -189 0
-1078 -190 0
-1078 -191 0
-1078 -207 405 0
-1078 -207 -252 0
-1078 -207 -256 0
-1078 -207 -260 0
-1078 -207 -276 0
-1078 -207 -280 0
-1078 -207 -284 0
-1078 -207 -300 0
-1078 -207 -304 0
-1078 -207 -308 0
-1078 -207 -203 -220 0
-1078 -208 406 0
-1078 -208 -253 0
-1078 -208 -257 0
-1078 -208 -261 0
-1078 -208 -277 0
-1078 -208 -281 0
-1078 -208 -285 0
-1078 -208 -301 0
-1078 -208 -305 0
-1078 -208 -309 0
-1078 -208 -203 -221 0
-1078 -209 407 0
-1078 -209 -254 0
-1078 -209 -258 0
-1078 -209 -262 0
-1078 -209 -278 0
-1078 -209 -282 0
-1078 -209 -286 0
-1078 -209 -302 0
-1078 -209 -306 0
-1078 -209 -310 0
-1078 -209 -203 -222 0
-1078 -210 0
-1079 226 0
-1079 389 0
-1079 -186 0
-1079 -190 0
-1079 -191 0
-1079 -207 405 0
-1079 -207 -256 0
-1079 -207 -260 0
-1079 -207 -264 0
-1079 -207 -280 0
-1079 -207 -284 0
-1079 -207 -288 0
-1079 -207 -304 0
-1079 -207 -308 0
-1079 -207 -312 0
-1079 -207 -204 -220 0
-1079 -208 406 0
-1079 -208 -257 0
-1079 -208 -261 0
-1079 -208 -265 0
-1079 -208 -281 0
-1079 -208 -285 0
-1079 -208 -289 0
-1079 -208 -305 0
-1079 -208 -309 0
-1079 -208 -313 0
-1079 -208 -204 -221 0
-1079 -209 407 0
-1079 -209 -258 0
-1079 -209 -262 0
-1079 -209 -266 0
-1079 -209 -282 0
-1079 -209 -286 0
-1079 -209 -290 0
-1079 -209 -306 0
-1079 -209 -310 0
-1079 -209 -314 0
-1079 -209 -204 -222 0
-1079 -210 0
-1080 226 0
-1080 390 0
-1080 -186 0
-1080 -187 0
-1080 -191 0
-1080 -207 405 0
-1080 -207 -260 0
-1080 -207 -264 0
-1080 -207 -268 0
-1080 -207 -284 0
-1080 -207 -288 0
-1080 -207 -292 0
-1080 -207 -308 0
-1080 -207 -312 0
-1080 -207 -316 0
-1080 -207 -205 -220 0
-1080 -208 406 0
-1080 -208 -261 0
-1080 -208 -265 0
-1080 -208 -269 0
-1080 -208 -285 0
-1080 -208 -289 0
-1080 -208 -293 0
-1080 -208 -309 0
-1080 -208 -313 0
-1080 -208 -317 0
-1080 -208 -205 -221 0
-1080 -209 407 0
-1080 -209 -262 0
-1080 -209 -266 0
-1080 -209 -270 0
-1080 -209 -286 0
-1080 -209 -290 0
-1080 -209 -294 0
-1080 -209 -310 0
-1080 -209 -314 0
-1080 -209 -318 0
-1080 -209 -205 -222 0
-1080 -210 0
-1081 226 0
-1081 391 0
-1081 -186 0
-1081 -187 0
-1081 -188 0
-1081 -207 405 0
-1081 -207 -264 0
-1081 -207 -268 0
-1081 -207 -272 0
-1081 -207 -288 0
-1081 -207 -292 0
-1081 -207 -296 0
-1081 -207 -312 0
-1081 -207 -316 0
-1081 -207 -320 0
-1081 -207 -206 -220 0
-1081 -208 406 0
-1081 -208 -265 0
-1081 -208 -269 0
-1081 -208 -273 0
-1081 -208 -289 0
-1081 -208 -293 0
-1081 -208 -297 0
-1081 -208 -313 0
-1081 -208 -317 0
-1081 -208 -321 0
-1081 -208 -206 -221 0
-1081 -209 407 0
-1081 -209 -266 0
-1081 -209 -270 0
-1081 -209 -274 0
-1081 -209 -290 0
-1081 -209 -294 0
-1081 -209 -298 0
-1081 -209 -314 0
-1081 -209 -318 0
-1081 -209 -322 0
-1081 -209 -206 -222 0
-1081 -210 0
-1082 226 0
-1082 388 0
-1082 -195 0
-1082 -196 0
-1082 -197 0
-1082 -211 405 0
-1082 -211 -252 0
-1082 -211 -256 0
-1082 -211 -260 0
-1082 -211 -276 0
-1082 -211 -280 0
-1082 -211 -284 0
-1082 -211 -300 0
-1082 -211 -304 0
-1082 -211 -308 0
-1082 -211 -203 -220 0
-1082 -212 406 0
-1082 -212 -253 0
-1082 -212 -257 0
-1082 -212 -261 0
-1082 -212 -277 0
-1082 -212 -281 0
-1082 -212 -285 0
-1082 -212 -301 0
-1082 -212 -305 0
-1082 -212 -309 0
-1082 -212 -203 -221 0
-1082 -213 407 0
-1082 -213 -254 0
-1082 -213 -258 0
-1082 -213 -262 0
-1082 -213 -278 0
-1082 -213 -282 0
-1082 -213 -286 0
-1082 -213 -302 0
-1082 -213 -306 0
-1082 -213 -310 0
-1082 -213 -203 -222 0
-1082 -214 0
-1083 226 0
-1083 389 0
-1083 -192 0
-1083 -196 0
-1083 -197 0
-1083 -211 405 0
-1083 -211 -256 0
-1083 -211 -260 0
-1083 -211 -264 0
-1083 -211 -280 0
-1083 -211 -284 0
-1083 -211 -288 0
-1083 -211 -304 0
-1083 -211 -308 0
-1083 -211 -312 0
-1083 -211 -204 -220 0
-1083 -212 406 0
-1083 -212 -257 0
-1083 -212 -261 0
-1083 -212 -265 0
-1083 -212 -281 0
-1083 -212 -285 0
-1083 -212 -289 0
-1083 -212 -305 0
-1083 -212 -309 0
-1083 -212 -313 0
-1083 -212 -204 -221 0
-1083 -213 407 0
-1083 -213 -258 0
-1083 -213 -262 0
-1083 -213 -266 0
-1083 -213 -282 0
-1083 -213 -286 0
-1083 -213 -290 0
-1083 -213 -306 0
-1083 -213 -310 0
-1083 -213 -314 0
-1083 -213 -204 -222 0
-1083 -214 0
-1084 226 0
-1084 390 0
-1084 -192 0
-1084 -193 0
-1084 -197 0
-1084 -211 405 0
-1084 -211 -260 0
-1084 -211 -264 0
-1084 -211 -268 0
-1084 -211 -284 0
-1084 -211 -288 0
-1084 -211 -292 0
-1084 -211 -308 0
-1084 -211 -312 0
-1084 -211 -316 0
-1084 -211 -205 -220 0
-1084 -212 406 0
-1084 -212 -261 0
-1084 -212 -265 0
-1084 -212 -269 0
-1084 -212 -285 0
-1084 -212 -289 0
-1084 -212 -293 0
-1084 -212 -309 0
-1084 -212 -313 0
-1084 -212 -317 0
-1084 -212 -205 -221 0
-1084 -213 407 0
-1084 -213 -262 0
-1084 -213 -266 0
-1084 -213 -270 0
-1084 -213 -286 0
-1084 -213 -290 0
-1084 -213 -294 0
-1084 -213 -310 0
-1084 -213 -314 0
-1084 -213 -318 0
-1084 -213 -205 -222 0
-1084 -214 0
-1085 226 0
-1085 391 0
-1085 -192 0
-1085 -193 0
-1085 -194 0
-1085 -211 405 0
-1085 -211 -264 0
-1085 -211 -268 0
-1085 -211 -272 0
-1085 -211 -288 0
-1085 -211 -292 0
-1085 -211 -296 0
-1085 -211 -312 0
-1085 -211 -316 0
-1085 -211 -320 0
-1085 -211 -206 -220 0
-1085 -212 406 0
-1085 -212 -265 0
-1085 -212 -269 0
-1085 -212 -273 0
-1085 -212 -289 0
-1085 -212 -293 0
-1085 -212 -297 0
-1085 -212 -313 0
-1085 -212 -317 0
-1085 -212 -321 0
-1085 -212 -206 -221 0
-1085 -213 407 0
-1085 -213 -266 0
-1085 -213 -270 0
-1085 -213 -274 0
-1085 -213 -290 0
-1085 -213 -294 0
-1085 -213 -298 0
-1085 -213 -314 0
-1085 -213 -318 0
-1085 -213 -322 0
-1085 -213 -206 -222 0
-1085 -214 0
-1086 226 0
-1086 388 0
-1086 -201 0
-1086 -202 0
-1086 -215 405 0
-1086 -215 -252 0
-1086 -215 -256 0
-1086 -215 -260 0
-1086 -215 -276 0
-1086 -215 -280 0
-1086 -215 -284 0
-1086 -215 -300 0
-1086 -215 -304 0
-1086 -215 -308 0
-1086 -215 -203 -220 0
-1086 -216 406 0
-1086 -216 -253 0
-1086 -216 -257 0
-1086 -216 -261 0
-1086 -216 -277 0
-1086 -216 -281 0
-1086 -216 -285 0
-1086 -216 -301 0
-1086 -216 -305 0
-1086 -216 -309 0
-1086 -216 -203 -221 0
-1086 -217 407 0
-1086 -217 -254 0
-1086 -217 -258 0
-1086 -217 -262 0
-1086 -217 -278 0
-1086 -217 -282 0
-1086 -217 -286 0
-1086 -217 -302 0
-1086 -217 -306 0
-1086 -217 -310 0
-1086 -217 -203 -222 0
-1086 -218 0
-1087 226 0
-1087 389 0
-1087 -202 0
-1087 -215 405 0
-1087 -215 -256 0
-1087 -215 -260 0
-1087 -215 -264 0
-1087 -215 -280 0
-1087 -215 -284 0
-1087 -215 -288 0
-1087 -215 -304 0
-1087 -215 -308 0
-1087 -215 -312 0
-1087 -215 -204 -220 0
-1087 -216 406 0
-1087 -216 -257 0
-1087 -216 -261 0
-1087 -216 -265 0
-1087 -216 -281 0
-1087 -216 -285 0
-1087 -216 -289 0
-1087 -216 -305 0
-1087 -216 -309 0
-1087 -216 -313 0
-1087 -216 -204 -221 0
-1087 -217 407 0
-1087 -217 -258 0
-1087 -217 -262 0
-1087 -217 -266 0
-1087 -217 -282 0
-1087 -217 -286 0
-1087 -217 -290 0
-1087 -217 -306 0
-1087 -217 -310 0
-1087 -217 -314 0
-1087 -217 -204 -222 0
-1087 -218 0
-1088 226 0
-1088 390 0
-1088 -198 0
-1088 -215 405 0
-1088 -215 -260 0
-1088 -215 -264 0
-1088 -215 -268 0
-1088 -215 -284 0
-1088 -215 -288 0
-1088 -215 -292 0
-1088 -215 -308 0
-1088 -215 -312 0
-1088 -215 -316 0
-1088 -215 -205 -220 0
-1088 -216 406 0
-1088 -216 -261 0
-1088 -216 -265 0
-1088 -216 -269 0
-1088 -216 -285 0
-1088 -216 -289 0
-1088 -216 -293 0
-1088 -216 -309 0
-1088 -216 -313 0
-1088 -216 -317 0
-1088 -216 -205 -221 0
-1088 -217 407 0
-1088 -217 -262 0
-1088 -217 -266 0
-1088 -217 -270 0
-1088 -217 -286 0
-1088 -217 -290 0
-1088 -217 -294 0
-1088 -217 -310 0
-1088 -217 -314 0
-1088 -217 -318 0
-1088 -217 -205 -222 0
-1088 -218 0
-1089 226 0
-1089 391 0
-1089 -198 0
-1089 -199 0
-1089 -215 405 0
-1089 -215 -264 0
-1089 -215 -268 0
-1089 -215 -272 0
-1089 -215 -288 0
-1089 -215 -292 0
-1089 -215 -296 0
-1089 -215 -312 0
-1089 -215 -316 0
-1089 -215 -320 0
-1089 -215 -206 -220 0
-1089 -216 406 0
-1089 -216 -265 0
-1089 -216 -269 0
-1089 -216 -273 0
-1089 -216 -289 0
-1089 -216 -293 0
-1089 -216 -297 0
-1089 -216 -313 0
-1089 -216 -317 0
-1089 -216 -321 0
-1089 -216 -206 -221 0
-1089 -217 407 0
-1089 -217 -266 0
-1089 -217 -270 0
-1089 -217 -274 0
-1089 -217 -290 0
-1089 -217 -294 0
-1089 -217 -298 0
-1089 -217 -314 0
-1089 -217 -318 0
-1089 -217 -322 0
-1089 -217 -206 -222 0
-1089 -218 0
-1090 226 0
-1090 388 0
-1090 404 0
-1090 -251 0
-1090 -255 0
-1090 -259 0
-1090 -275 0
-1090 -279 0
-1090 -283 0
-1090 -299 0
-1090 -303 0
-1090 -307 0
-1090 -203 -219 0
-1091 226 0
-1091 389 0
-1091 404 0
-1091 -255 0
-1091 -259 0
-1091 -263 0
-1091 -279 0
-1091 -283 0
-1091 -287 0
-1091 -303 0
-1091 -307 0
-1091 -311 0
-1091 -204 -219 0
-1092 226 0
-1092 390 0
-1092 404 0
-1092 -259 0
-1092 -263 0
-1092 -267 0
-1092 -283 0
-1092 -287 0
-1092 -291 0
-1092 -307 0
-1092 -311 0
-1092 -315 0
-1092 -205 -219 0
-1093 226 0
-1093 391 0
-1093 404 0
-1093 -263 0
-1093 -267 0
-1093 -271 0
-1093 -287 0
-1093 -291 0
-1093 -295 0
-1093 -311 0
-1093 -315 0
-1093 -319 0
-1093 -206 -219 0
-186 371 1010 1011 1012 1013 1014 1015 1016 1017 1018 1019 1020 1021 1022 1023 1024 1025 1026 1027 1028 1029 1030 1031 1032 1033 0
-187 372 1010 1011 1012 1013 1014 1015 1016 1017 1018 1019 1020 1021 1022 1023 1024 1025 1026 1027 1028 1029 1030 1031 1032 1033 0
-188 373 1010 1011 1012 1013 1014 1015 1016 1017 1018 1019 1020 1021 1022 1023 1024 1025 1026 1027 1028 1029 1030 1031 1032 1033 0
-189 374 1010 1011 1012 1013 1014 1015 1016 1017 1018 1019 1020 1021 1022 1023 1024 1025 1026 1027 1028 1029 1030 1031 1032 1033 0
-190 375 1010 1011 1012 1013 1014 1015 1016 1017 1018 1019 1020 1021 1022 1023 1024 1025 1026 1027 1028 1029 1030 1031 1032 1033 0
-191 376 1010 1011 1012 1013 1014 1015 1016 1017 1018 1019 1020 1021 1022 1023 1024 1025 1026 1027 1028 1029 1030 1031 1032 1033 0
-207 392 1010 1011 1012 1013 1014 1015 1016 1017 1018 1019 1020 1021 1022 1023 1024 1025 1026 1027 1028 1029 1030 1031 1032 1033 0
-208 393 1010 1011 1012 1013 1014 1015 1016 1017 1018 1019 1020 1021 1022 1023 1024 1025 1026 1027 1028 1029 1030 1031 1032 1033 0
-209 394 1010 1011 1012 1013 1014 1015 1016 1017 1018 1019 1020 1021 1022 1023 1024 1025 1026 1027 1028 1029 1030 1031 1032 1033 0
-210 395 1010 1011 1012 1013 1014 1015 1016 1017 1018 1019 1020 1021 1022 1023 1024 1025 1026 1027 1028 1029 1030 1031 1032 1033 0
-192 377 1034 1035 1036 1037 1038 1039 1040 1041 1042 1043 1044 1045 1046 1047 1048 1049 1050 1051 1052 1053 1054 1055 1056 1057 0
-193 378 1034 1035 1036 1037 1038 1039 1040 1041 1042 1043 1044 1045 1046 1047 1048 1049 1050 1051 1052 1053 1054 1055 1056 1057 0
-194 379 1034 1035 1036 1037 1038 1039 1040 1041 1042 1043 1044 1045 1046 1047 1048 1049 1050 1051 1052 1053 1054 1055 1056 1057 0
-195 380 1034 1035 1036 1037 1038 1039 1040 1041 1042 1043 1044 1045 1046 1047 1048 1049 1050 1051 1052 1053 1054 1055 1056 1057 0
-196 381 1034 1035 1036 1037 1038 1039 1040 1041 1042 1043 1044 1045 1046 1047 1048 1049 1050 1051 1052 1053 1054 1055 1056 1057 0
-197 382 1034 1035 1036 1037 1038 1039 1040 1041 1042 1043 1044 1045 1046 1047 1048 1049 1050 1051 1052 1053 1054 1055 1056 1057 0
-211 396 1034 1035 1036 1037 1038 1039 1040 1041 1042 1043 1044 1045 1046 1047 1048 1049 1050 1051 1052 1053 1054 1055 1056 1057 0
-212 397 1034 1035 1036 1037 1038 1039 1040 1041 1042 1043 1044 1045 1046 1047 1048 1049 1050 1051 1052 1053 1054 1055 1056 1057 0
-213 398 1034 1035 1036 1037 1038 1039 1040 1041 1042 1043 1044 1045 1046 1047 1048 1049 1050 1051 1052 1053 1054 1055 1056 1057 0
-214 399 1034 1035 1036 1037 1038 1039 1040 1041 1042 1043 1044 1045 1046 1047 1048 1049 1050 1051 1052 1053 1054 1055 1056 1057 0
-198 383 1058 1059 1060 1061 1062 1063 1064 1065 1066 1067 1068 1069 1070 1071 1072 1073 1074 1075 1076 1077 0
-199 384 1058 1059 1060 1061 1062 1063 1064 1065 1066 1067 1068 1069 1070 1071 1072 1073 1074 1075 1076 1077 0
-200 385 1058 1059 1060 1061 1062 1063 1064 1065 1066 1067 1068 1069 1070 1071 1072 1073 1074 1075 1076 1077 0
-201 386 1058 1059 1060 1061 1062 1063 1064 1065 1066 1067 1068 1069 1070 1071 1072 1073 1074 1075 1076 1077 0
-202 387 1058 1059 1060 1061 1062 1063 1064 1065 1066 1067 1068 1069 1070 1071 1072 1073 1074 1075 1076 1077 0
-215 400 1058 1059 1060 1061 1062 1063 1064 1065 1066 1067 1068 1069 1070 1071 1072 1073 1074 1075 1076 1077 0
-216 401 1058 1059 1060 1061 1062 1063 1064 1065 1066 1067 1068 1069 1070 1071 1072 1073 1074 1075 1076 1077 0
-217 402 1058 1059 1060 1061 1062 1063 1064 1065 1066 1067 1068 1069 1070 1071 1072 1073 1074 1075 1076 1077 0
-218 403 1058 1059 1060 1061 1062 1063 1064 1065 1066 1067 1068 1069 1070 1071 1072 1073 1074 1075 1076 1077 0
-203 388 1078 1079 1080 1081 1082 1083 1084 1085 1086 1087 1088 1089 1090 1091 1092 1093 0
-204 389 1078 1079 1080 1081 1082 1083 1084 1085 1086 1087 1088 1089 1090 1091 1092 1093 0
-205 390 1078 1079 1080 1081 1082 1083 1084 1085 1086 1087 1088 1089 1090 1091 1092 1093 0
-206 391 1078 1079 1080 1081 1082 1083 1084 1085 1086 1087 1088 1089 1090 1091 1092 1093 0
-219 404 1078 1079 1080 1081 1082 1083 1084 1085 1086 1087 1088 1089 1090 1091 1092 1093 0
-220 405 1078 1079 1080 1081 1082 1083 1084 1085 1086 1087 1088 1089 1090 1091 1092 1093 0
-221 406 1078 1079 1080 1081 1082 1083 1084 1085 1086 1087 1088 1089 1090 1091 1092 1093 0
-222 407 1078 1079 1080 1081 1082 1083 1084 1085 1086 1087 1088 1089 1090 1091 1092 1093 0
-1094 -1095 0
-1094 -1096 0
-1094 -1097 0
-1094 -1098 0
-1094 -1099 0
-1094 -1100 0
-1094 -1101 0
-1094 -1102 0
-1094 -1103 0
-1094 -1104 0
-1094 -1105 0
-1094 -1106 0
-1094 -1107 0
-1094 -1108 0
-1094 -1109 0
-1094 -1110 0
-1094 -1111 0
-1094 -1112 0
-1094 -1113 0
-1094 -1114 0
-1094 -1115 0
-1094 -1116 0
-1094 -1117 0
-1094 -1118 0
-1094 -1119 0
-1094 -1120 0
-1094 -1121 0
-1094 -1122 0
-1094 -1123 0
-1094 -1124 0
-1094 -1125 0
-1094 -1126 0
-1094 -1127 0
-1094 -1128 0
-1094 -1129 0
-1094 -1130 0
-1094 -1131 0
-1094 -1132 0
-1094 -1133 0
-1094 -1134 0
-1094 -1135 0
-1094 -1136 0
-1094 -1137 0
-1094 -1138 0
-1094 -1139 0
-1094 -1140 0
-1094 -1141 0
-1094 -1142 0
-1094 -1143 0
-1094 -1144 0
-1094 -1145 0
-1094 -1146 0
-1094 -1147 0
-1094 -1148 0
-1094 -1149 0
-1094 -1150 0
-1094 -1151 0
-1094 -1152 0
-1094 -1153 0
-1094 -1154 0
-1094 -1155 0
-1094 -1156 0
-1094 -1157 0
-1094 -1158 0
-1094 -1159 0
-1094 -1160 0
-1094 -1161 0
-1094 -1162 0
-1094 -1163 0
-1094 -1164 0
-1094 -1165 0
-1094 -1166 0
-1094 -1167 0
-1094 -1168 0
-1094 -1169 0
-1094 -1170 0
-1094 -1171 0
-1094 -1172 0
-1094 -1173 0
-1094 -1174 0
-1094 -1175 0
-1094 -1176 0
-1094 -1177 0
-1095 -1096 0
-1095 -1097 0
-1095 -1098 0
-1095 -1099 0
-1095 -1100 0
-1095 -1101 0
-1095 -1102 0
-1095 -1103 0
-1095 -1104 0
-1095 -1105 0
-1095 -1106 0
-1095 -1107 0
-1095 -1108 0
-1095 -1109 0
-1095 -1110 0
-1095 -1111 0
-1095 -1112 0
-1095 -1113 0
-1095 -1114 0
-1095 -1115 0
-1095 -1116 0
-1095 -1117 0
-1095 -1118 0
-1095 -1119 0
-1095 -1120 0
-1095 -1121 0
-1095 -1122 0
-1095 -1123 0
-1095 -1124 0
-1095 -1125 0
-1095 -1126 0
-1095 -1127 0
-1095 -1128 0
-1095 -1129 0
-1095 -1130 0
-1095 -1131 0
-1095 -1132 0
-1095 -1133 0
-1095 -1134 0
-1095 -1135 0
-1095 -1136 0
-1095 -1137 0
-1095 -1138 0
-1095 -1139 0
-1095 -1140 0
-1095 -1141 0
-1095 -1142 0
-1095 -1143 0
-1095 -1144 0
-1095 -1145 0
-1095 -1146 0
-1095 -1147 0
-1095 -1148 0
-1095 -1149 0
-1095 -1150 0
-1095 -1151 0
-1095 -1152 0
-1095 -1153 0
-1095 -1154 0
-1095 -1155 0
-1095 -1156 0
-1095 -1157 0
-1095 -1158 0
-1095 -1159 0
-1095 -1160 0
-1095 -1161 0
-1095 -1162 0
-1095 -1163 0
-1095 -1164 0
-1095 -1165 0
-1095 -1166 0
-1095 -1167 0
-1095 -1168 0
-1095 -1169 0
-1095 -1170 0
-1095 -1171 0
-1095 -1172 0
-1095 -1173 0
-1095 -1174 0
-1095 -1175 0
-1095 -1176 0
-1095 -1177 0
-1096 -1097 0
-1096 -1098 0
-1096 -1099 0
-1096 -1100 0
-1096 -1101 0
-1096 -1102 0
-1096 -1103 0
-1096 -1104 0
-1096 -1105 0
-1096 -1106 0
-1096 -1107 0
-1096 -1108 0
-1096 -1109 0
-1096 -1110 0
-1096 -1111 0
-1096 -1112 0
-1096 -1113 0
-1096 -1114 0
-1096 -1115 0
-1096 -1116 0
-1096 -1117 0
-1096 -1118 0
-1096 -1119 0
-1096 -1120 0
-1096 -1121 0
-1096 -1122 0
-1096 -1123 0
-1096 -1124 0
-1096 -1125 0
-1096 -1126 0
-1096 -1127 0
-1096 -1128 0
-1096 -1129 0
-1096 -1130 0
-1096 -1131 0
-1096 -1132 0
-1096 -1133 0
-1096 -1134 0
-1096 -1135 0
-1096 -1136 0
-1096 -1137 0
-1096 -1138 0
-1096 -1139 0
-1096 -1140 0
-1096 -1141 0
-1096 -1142 0
-1096 -1143 0
-1096 -1144 0
-1096 -1145 0
-1096 -1146 0
-1096 -1147 0
-1096 -1148 0
-1096 -1149 0
-1096 -1150 0
-1096 -1151 0
-1096 -1152 0
-1096 -1153 0
-1096 -1154 0
-1096 -1155 0
-1096 -1156 0
-1096 -1157 0
-1096 -1158 0
-1096 -1159 0
-1096 -1160 0
-1096 -1161 0
-1096 -1162 0
-1096 -1163 0
-1096 -1164 0
-1096 -1165 0
-1096 -1166 0
-1096 -1167 0
-1096 -1168 0
-1096 -1169 0
-1096 -1170 0
-1096 -1171 0
-1096 -1172 0
-1096 -1173 0
-1096 -1174 0
-1096 -1175 0
-1096 -1176 0
-1096 -1177 0
-1097 -1098 0
-1097 -1099 0
-1097 -1100 0
-1097 -1101 0
-1097 -1102 0
-1097 -1103 0
-1097 -1104 0
-1097 -1105 0
-1097 -1106 0
-1097 -1107 0
-1097 -1108 0
-1097 -1109 0
-1097 -1110 0
-1097 -1111 0
-1097 -1112 0
-1097 -1113 0
-1097 -1114 0
-1097 -1115 0
-1097 -1116 0
-1097 -1117 0
-1097 -1118 0
-1097 -1119 0
-1097 -1120 0
-1097 -1121 0
-1097 -1122 0
-1097 -1123 0
-1097 -1124 0
-1097 -1125 0
-1097 -1126 0
-1097 -1127 0
-1097 -1128 0
-1097 -1129 0
-1097 -1130 0
-1097 -1131 0
-1097 -1132 0
-1097 -1133 0
-1097 -1134 0
-1097 -1135 0
-1097 -1136 0
-1097 -1137 0
-1097 -1138 0
-1097 -1139 0
-1097 -1140 0
-1097 -1141 0
-1097 -1142 0
-1097 -1143 0
-1097 -1144 0
-1097 -1145 0
-1097 -1146 0
-1097 -1147 0
-1097 -1148 0
-1097 -1149 0
-1097 -1150 0
-1097 -1151 0
-1097 -1152 0
-1097 -1153 0
-1097 -1154 0
-1097 -1155 0
-1097 -1156 0
-1097 -1157 0
-1097 -1158 0
-1097 -1159 0
-1097 -1160 0
-1097 -1161 0
-1097 -1162 0
-1097 -1163 0
-1097 -1164 0
-1097 -1165 0
-1097 -1166 0
-1097 -1167 0
-1097 -1168 0
-1097 -1169 0
-1097 -1170 0
-1097 -1171 0
-1097 -1172 0
-1097 -1173 0
-1097 -1174 0
-1097 -1175 0
-1097 -1176 0
-1097 -1177 0
-1098 -1099 0
-1098 -1100 0
-1098 -1101 0
-1098 -1102 0
-1098 -1103 0
-1098 -1104 0
-1098 -1105 0
-1098 -1106 0
-1098 -1107 0
-1098 -1108 0
-1098 -1109 0
-1098 -1110 0
-1098 -1111 0
-1098 -1112 0
-1098 -1113 0
-1098 -1114 0
-1098 -1115 0
-1098 -1116 0
-1098 -1117 0
-1098 -1118 0
-1098 -1119 0
-1098 -1120 0
-1098 -1121 0
-1098 -1122 0
-1098 -1123 0
-1098 -1124 0
-1098 -1125 0
-1098 -1126 0
-1098 -1127 0
-1098 -1128 0
-1098 -1129 0
-1098 -1130 0
-1098 -1131 0
-1098 -1132 0
-1098 -1133 0
-1098 -1134 0
-1098 -1135 0
-1098 -1136 0
-1098 -1137 0
-1098 -1138 0
-1098 -1139 0
-1098 -1140 0
-1098 -1141 0
-1098 -1142 0
-1098 -1143 0
-1098 -1144 0
-1098 -1145 0
-1098 -1146 0
-1098 -1147 0
-1098 -1148 0
-1098 -1149 0
-1098 -1150 0
-1098 -1151 0
-1098 -1152 0
-1098 -1153 0
-1098 -1154 0
-1098 -1155 0
-1098 -1156 0
-1098 -1157 0
-1098 -1158 0
-1098 -1159 0
-1098 -1160 0
-1098 -1161 0
-1098 -1162 0
-1098 -1163 0
-1098 -1164 0
-1098 -1165 0
-1098 -1166 0
-1098 -1167 0
-1098 -1168 0
-1098 -1169 0
-1098 -1170 0
-1098 -1171 0
-1098 -1172 0
-1098 -1173 0
-1098 -1174 0
-1098 -1175 0
-1098 -1176 0
-1098 -1177 0
-1099 -1100 0
-1099 -1101 0
-1099 -1102 0
-1099 -1103 0
-1099 -1104 0
-1099 -1105 0
-1099 -1106 0
-1099 -1107 0
-1099 -1108 0
-1099 -1109 0
-1099 -1110 0
-1099 -1111 0
-1099 -1112 0
-1099 -1113 0
-1099 -1114 0
-1099 -1115 0
-1099 -1116 0
-1099 -1117 0
-1099 -1118 0
-1099 -1119 0
-1099 -1120 0
-1099 -1121 0
-1099 -1122 0
-1099 -1123 0
-1099 -1124 0
-1099 -1125 0
-1099 -1126 0
-1099 -1127 0
-1099 -1128 0
-1099 -1129 0
-1099 -1130 0
-1099 -1131 0
-1099 -1132 0
-1099 -1133 0
-1099 -1134 0
-1099 -1135 0
-1099 -1136 0
-1099 -1137 0
-1099 -1138 0
-1099 -1139 0
-1099 -1140 0
-1099 -1141 0
-1099 -1142 0
-1099 -1143 0
-1099 -1144 0
-1099 -1145 0
-1099 -1146 0
-1099 -1147 0
-1099 -1148 0
-1099 -1149 0
-1099 -1150 0
-1099 -1151 0
-1099 -1152 0
-1099 -1153 0
-1099 -1154 0
-1099 -1155 0
-1099 -1156 0
-1099 -1157 0
-1099 -1158 0
-1099 -1159 0
-1099 -1160 0
-1099 -1161 0
-1099 -1162 0
-1099 -1163 0
-1099 -1164 0
-1099 -1165 0
-1099 -1166 0
-1099 -1167 0
-1099 -1168 0
-1099 -1169 0
-1099 -1170 0
-1099 -1171 0
-1099 -1172 0
-1099 -1173 0
-1099 -1174 0
-1099 -1175 0
-1099 -1176 0
-1099 -1177 0
-1100 -1101 0
-1100 -1102 0
-1100 -1103 0
-1100 -1104 0
-1100 -1105 0
-1100 -1106 0
-1100 -1107 0
-1100 -1108 0
-1100 -1109 0
-1100 -1110 0
-1100 -1111 0
-1100 -1112 0
-1100 -1113 0
-1100 -1114 0
-1100 -1115 0
-1100 -1116 0
-1100 -1117 0
-1100 -1118 0
-1100 -1119 0
-1100 -1120 0
-1100 -1121 0
-1100 -1122 0
-1100 -1123 0
-1100 -1124 0
-1100 -1125 0
-1100 -1126 0
-1100 -1127 0
-1100 -1128 0
-1100 -1129 0
-1100 -1130 0
-1100 -1131 0
-1100 -1132 0
-1100 -1133 0
-1100 -1134 0
-1100 -1135 0
-1100 -1136 0
-1100 -1137 0
-1100 -1138 0
-1100 -1139 0
-1100 -1140 0
-1100 -1141 0
-1100 -1142 0
-1100 -1143 0
-1100 -1144 0
-1100 -1145 0
-1100 -1146 0
-1100 -1147 0
-1100 -1148 0
-1100 -1149 0
-1100 -1150 0
-1100 -1151 0
-1100 -1152 0
-1100 -1153 0
-1100 -1154 0
-1100 -1155 0
-1100 -1156 0
-1100 -1157 0
-1100 -1158 0
-1100 -1159 0
-1100 -1160 0
-1100 -1161 0
-1100 -1162 0
-1100 -1163 0
-1100 -1164 0
-1100 -1165 0
-1100 -1166 0
-1100 -1167 0
-1100 -1168 0
-1100 -1169 0
-1100 -1170 0
-1100 -1171 0
-1100 -1172 0
-1100 -1173 0
-1100 -1174 0
-1100 -1175 0
-1100 -1176 0
-1100 -1177 0
-1101 -1102 0
-1101 -1103 0
-1101 -1104 0
-1101 -1105 0
-1101 -1106 0
-1101 -1107 0
-1101 -1108 0
-1101 -1109 0
-1101 -1110 0
-1101 -1111 0
-1101 -1112 0
-1101 -1113 0
-1101 -1114 0
-1101 -1115 0
-1101 -1116 0
-1101 -1117 0
-1101 -1118 0
-1101 -1119 0
-1101 -1120 0
-1101 -1121 0
-1101 -1122 0
-1101 -1123 0
-1101 -1124 0
-1101 -1125 0
-1101 -1126 0
-1101 -1127 0
-1101 -1128 0
-1101 -1129 0
-1101 -1130 0
-1101 -1131 0
-1101 -1132 0
-1101 -1133 0
-1101 -1134 0
-1101 -1135 0
-1101 -1136 0
-1101 -1137 0
-1101 -1138 0
-1101 -1139 0
-1101 -1140 0
-1101 -1141 0
-1101 -1142 0
-1101 -1143 0
-1101 -1144 0
-1101 -1145 0
-1101 -1146 0
-1101 -1147 0
-1101 -1148 0
-1101 -1149 0
-1101 -1150 0
-1101 -1151 0
-1101 -1152 0
-1101 -1153 0
-1101 -1154 0
-1101 -1155 0
-1101 -1156 0
-1101 -1157 0
-1101 -1158 0
-1101 -1159 0
-1101 -1160 0
-1101 -1161 0
-1101 -1162 0
-1101 -1163 0
-1101 -1164 0
-1101 -1165 0
-1101 -1166 0
-1101 -1167 0
-1101 -1168 0
-1101 -1169 0
-1101 -1170 0
-1101 -1171 0
-1101 -1172 0
-1101 -1173 0
-1101 -1174 0
-1101 -1175 0
-1101 -1176 0
-1101 -1177 0
-1102 -1103 0
-1102 -1104 0
-1102 -1105 0
-1102 -1106 0
-1102 -1107 0
-1102 -1108 0
-1102 -1109 0
-1102 -1110 0
-1102 -1111 0
-1102 -1112 0
-1102 -1113 0
-1102 -1114 0
-1102 -1115 0
-1102 -1116 0
-1102 -1117 0
-1102 -1118 0
-1102 -1119 0
-1102 -1120 0
-1102 -1121 0
-1102 -1122 0
-1102 -1123 0
-1102 -1124 0
-1102 -1125 0
-1102 -1126 0
-1102 -1127 0
-1102 -1128 0
-1102 -1129 0
-1102 -1130 0
-1102 -1131 0
-1102 -1132 0
-1102 -1133 0
-1102 -1134 0
-1102 -1135 0
-1102 -1136 0
-1102 -1137 0
-1102 -1138 0
-1102 -1139 0
-1102 -1140 0
-1102 -1141 0
-1102 -1142 0
-1102 -1143 0
-1102 -1144 0
-1102 -1145 0
-1102 -1146 0
-1102 -1147 0
-1102 -1148 0
-1102 -1149 0
-1102 -1150 0
-1102 -1151 0
-1102 -1152 0
-1102 -1153 0
-1102 -1154 0
-1102 -1155 0
-1102 -1156 0
-1102 -1157 0
-1102 -1158 0
-1102 -1159 0
-1102 -1160 0
-1102 -1161 0
-1102 -1162 0
-1102 -1163 0
-1102 -1164 0
-1102 -1165 0
-1102 -1166 0
-1102 -1167 0
-1102 -1168 0
-1102 -1169 0
-1102 -1170 0
-1102 -1171 0
-1102 -1172 0
-1102 -1173 0
-1102 -1174 0
-1102 -1175 0
-1102 -1176 0
-1102 -1177 0
-1103 -1104 0
-1103 -1105 0
-1103 -1106 0
-1103 -1107 0
-1103 -1108 0
-1103 -1109 0
-1103 -1110 0
-1103 -1111 0
-1103 -1112 0
-1103 -1113 0
-1103 -1114 0
-1103 -1115 0
-1103 -1116 0
-1103 -1117 0
-1103 -1118 0
-1103 -1119 0
-1103 -1120 0
-1103 -1121 0
-1103 -1122 0
-1103 -1123 0
-1103 -1124 0
-1103 -1125 0
-1103 -1126 0
-1103 -1127 0
-1103 -1128 0
-1103 -1129 0
-1103 -1130 0
-1103 -1131 0
-1103 -1132 0
-1103 -1133 0
-1103 -1134 0
-1103 -1135 0
-1103 -1136 0
-1103 -1137 0
-1103 -1138 0
-1103 -1139 0
-1103 -1140 0
-1103 -1141 0
-1103 -1142 0
-1103 -1143 0
-1103 -1144 0
-1103 -1145 0
-1103 -1146 0
-1103 -1147 0
-1103 -1148 0
-1103 -1149 0
-1103 -1150 0
-1103 -1151 0
-1103 -1152 0
-1103 -1153 0
-1103 -1154 0
-1103 -1155 0
-1103 -1156 0
-1103 -1157 0
-1103 -1158 0
-1103 -1159 0
-1103 -1160 0
-1103 -1161 0
-1103 -1162 0
-1103 -1163 0
-1103 -1164 0
-1103 -1165 0
-1103 -1166 0
-1103 -1167 0
-1103 -1168 0
-1103 -1169 0
-1103 -1170 0
-1103 -1171 0
-1103 -1172 0
-1103 -1173 0
-1103 -1174 0
-1103 -1175 0
-1103 -1176 0
-1103 -1177 0
-1104 -1105 0
-1104 -1106 0
-1104 -1107 0
-1104 -1108 0
-1104 -1109 0
-1104 -1110 0
-1104 -1111 0
-1104 -1112 0
-1104 -1113 0
-1104 -1114 0
-1104 -1115 0
-1104 -1116 0
-1104 -1117 0
-1104 -1118 0
-1104 -1119 0
-1104 -1120 0
-1104 -1121 0
-1104 -1122 0
-1104 -1123 0
-1104 -1124 0
-1104 -1125 0
-1104 -1126 0
-1104 -1127 0
-1104 -1128 0
-1104 -1129 0
-1104 -1130 0
-1104 -1131 0
-1104 -1132 0
-1104 -1133 0
-1104 -1134 0
-1104 -1135 0
-1104 -1136 0
-1104 -1137 0
-1104 -1138 0
-1104 -1139 0
-1104 -1140 0
-1104 -1141 0
-1104 -1142 0
-1104 -1143 0
-1104 -1144 0
-1104 -1145 0
-1104 -1146 0
-1104 -1147 0
-1104 -1148 0
-1104 -1149 0
-1104 -1150 0
-1104 -1151 0
-1104 -1152 0
-1104 -1153 0
-1104 -1154 0
-1104 -1155 0
-1104 -1156 0
-1104 -1157 0
-1104 -1158 0
-1104 -1159 0
-1104 -1160 0
-1104 -1161 0
-1104 -1162 0
-1104 -1163 0
-1104 -1164 0
-1104 -1165 0
-1104 -1166 0
-1104 -1167 0
-1104 -1168 0
-1104 -1169 0
-1104 -1170 0
-1104 -1171 0
-1104 -1172 0
-1104 -1173 0
-1104 -1174 0
-1104 -1175 0
-1104 -1176 0
-1104 -1177 0
-1105 -1106 0
-1105 -1107 0
-1105 -1108 0
-1105 -1109 0
-1105 -1110 0
-1105 -1111 0
-1105 -1112 0
-1105 -1113 0
-1105 -1114 0
-1105 -1115 0
-1105 -1116 0
-1105 -1117 0
-1105 -1118 0
-1105 -1119 0
-1105 -1120 0
-1105 -1121 0
-1105 -1122 0
-1105 -1123 0
-1105 -1124 0
-1105 -1125 0
-1105 -1126 0
-1105 -1127 0
-1105 -1128 0
-1105 -1129 0
-1105 -1130 0
-1105 -1131 0
-1105 -1132 0
-1105 -1133 0
-1105 -1134 0
-1105 -1135 0
-1105 -1136 0
-1105 -1137 0
-1105 -1138 0
-1105 -1139 0
-1105 -1140 0
-1105 -1141 0
-1105 -1142 0
-1105 -1143 0
-1105 -1144 0
-1105 -1145 0
-1105 -1146 0
-1105 -1147 0
-1105 -1148 0
-1105 -1149 0
-1105 -1150 0
-1105 -1151 0
-1105 -1152 0
-1105 -1153 0
-1105 -1154 0
-1105 -1155 0
-1105 -1156 0
-1105 -1157 0
-1105 -1158 0
-1105 -1159 0
-1105 -1160 0
-1105 -1161 0
-1105 -1162 0
-1105 -1163 0
-1105 -1164 0
-1105 -1165 0
-1105 -1166 0
-1105 -1167 0
-1105 -1168 0
-1105 -1169 0
-1105 -1170 0
-1105 -1171 0
-1105 -1172 0
-1105 -1173 0
-1105 -1174 0
-1105 -1175 0
-1105 -1176 0
-1105 -1177 0
-1106 -1107 0
-1106 -1108 0
-1106 -1109 0
-1106 -1110 0
-1106 -1111 0
-1106 -1112 0
-1106 -1113 0
-1106 -1114 0
-1106 -1115 0
-1106 -1116 0
-1106 -1117 0
-1106 -1118 0
-1106 -1119 0
-1106 -1120 0
-1106 -1121 0
-1106 -1122 0
-1106 -1123 0
-1106 -1124 0
-1106 -1125 0
-1106 -1126 0
-1106 -1127 0
-1106 -1128 0
-1106 -1129 0
-1106 -1130 0
-1106 -1131 0
-1106 -1132 0
-1106 -1133 0
-1106 -1134 0
-1106 -1135 0
-1106 -1136 0
-1106 -1137 0
-1106 -1138 0
-1106 -1139 0
-1106 -1140 0
-1106 -1141 0
-1106 -1142 0
-1106 -1143 0
-1106 -1144 0
-1106 -1145 0
-1106 -1146 0
-1106 -1147 0
-1106 -1148 0
-1106 -1149 0
-1106 -1150 0
-1106 -1151 0
-1106 -1152 0
-1106 -1153 0
-1106 -1154 0
-1106 -1155 0
-1106 -1156 0
-1106 -1157 0
-1106 -1158 0
-1106 -1159 0
-1106 -1160 0
-1106 -1161 0
-1106 -1162 0
-1106 -1163 0
-1106 -1164 0
-1106 -1165 0
-1106 -1166 0
-1106 -1167 0
-1106 -1168 0
-1106 -1169 0
-1106 -1170 0
-1106 -1171 0
-1106 -1172 0
-1106 -1173 0
-1106 -1174 0
-1106 -1175 0
-1106 -1176 0
-1106 -1177 0
-1107 -1108 0
-1107 -1109 0
-1107 -1110 0
-1107 -1111 0
-1107 -1112 0
-1107 -1113 0
-1107 -1114 0
-1107 -1115 0
-1107 -1116 0
-1107 -1117 0
-1107 -1118 0
-1107 -1119 0
-1107 -1120 0
-1107 -1121 0
-1107 -1122 0
-1107 -1123 0
-1107 -1124 0
-1107 -1125 0
-1107 -1126 0
-1107 -1127 0
-1107 -1128 0
-1107 -1129 0
-1107 -1130 0
-1107 -1131 0
-1107 -1132 0
-1107 -1133 0
-1107 -1134 0
-1107 -1135 0
-1107 -1136 0
-1107 -1137 0
-1107 -1138 0
-1107 -1139 0
-1107 -1140 0
-1107 -1141 0
-1107 -1142 0
-1107 -1143 0
-1107 -1144 0
-1107 -1145 0
-1107 -1146 0
-1107 -1147 0
-1107 -1148 0
-1107 -1149 0
-1107 -1150 0
-1107 -1151 0
-1107 -1152 0
-1107 -1153 0
-1107 -1154 0
-1107 -1155 0
-1107 -1156 0
-1107 -1157 0
-1107 -1158 0
-1107 -1159 0
-1107 -1160 0
-1107 -1161 0
-1107 -1162 0
-1107 -1163 0
-1107 -1164 0
-1107 -1165 0
-1107 -1166 0
-1107 -1167 0
-1107 -1168 0
-1107 -1169 0
-1107 -1170 0
-1107 -1171 0
-1107 -1172 0
-1107 -1173 0
-1107 -1174 0
-1107 -1175 0
-1107 -1176 0
-1107 -1177 0
-1108 -1109 0
-1108 -1110 0
-1108 -1111 0
-1108 -1112 0
-1108 -1113 0
-1108 -1114 0
-1108 -1115 0
-1108 -1116 0
-1108 -1117 0
-1108 -1118 0
-1108 -1119 0
-1108 -1120 0
-1108 -1121 0
-1108 -1122 0
-1108 -1123 0
-1108 -1124 0
-1108 -1125 0
-1108 -1126 0
-1108 -1127 0
-1108 -1128 0
-1108 -1129 0
-1108 -1130 0
-1108 -1131 0
-1108 -1132 0
-1108 -1133 0
-1108 -1134 0
-1108 -1135 0
-1108 -1136 0
-1108 -1137 0
-1108 -1138 0
-1108 -1139 0
-1108 -1140 0
-1108 -1141 0
-1108 -1142 0
-1108 -1143 0
-1108 -1144 0
-1108 -1145 0
-1108 -1146 0
-1108 -1147 0
-1108 -1148 0
-1108 -1149 0
-1108 -1150 0
-1108 -1151 0
-1108 -1152 0
-1108 -1153 0
-1108 -1154 0
-1108 -1155 0
-1108 -1156 0
-1108 -1157 0
-1108 -1158 0
-1108 -1159 0
-1108 -1160 0
-1108 -1161 0
-1108 -1162 0
-1108 -1163 0
-1108 -1164 0
-1108 -1165 0
-1108 -1166 0
-1108 -1167 0
-1108 -1168 0
-1108 -1169 0
-1108 -1170 0
-1108 -1171 0
-1108 -1172 0
-1108 -1173 0
-1108 -1174 0
-1108 -1175 0
-1108 -1176 0
-1108 -1177 0
-1109 -1110 0
-1109 -1111 0
-1109 -1112 0
-1109 -1113 0
-1109 -1114 0
-1109 -1115 0
-1109 -1116 0
-1109 -1117 0
-1109 -1118 0
-1109 -1119 0
-1109 -1120 0
-1109 -1121 0
-1109 -1122 0
-1109 -1123 0
-1109 -1124 0
-1109 -1125 0
-1109 -1126 0
-1109 -1127 0
-1109 -1128 0
-1109 -1129 0
-1109 -1130 0
-1109 -1131 0
-1109 -1132 0
-1109 -1133 0
-1109 -1134 0
-1109 -1135 0
-1109 -1136 0
-1109 -1137 0
-1109 -1138 0
-1109 -1139 0
-1109 -1140 0
-1109 -1141 0
-1109 -1142 0
-1109 -1143 0
-1109 -1144 0
-1109 -1145 0
-1109 -1146 0
-1109 -1147 0
-1109 -1148 0
-1109 -1149 0
-1109 -1150 0
-1109 -1151 0
-1109 -1152 0
-1109 -1153 0
-1109 -1154 0
-1109 -1155 0
-1109 -1156 0
-1109 -1157 0
-1109 -1158 0
-1109 -1159 0
-1109 -1160 0
-1109 -1161 0
-1109 -1162 0
-1109 -1163 0
-1109 -1164 0
-1109 -1165 0
-1109 -1166 0
-1109 -1167 0
-1109 -1168 0
-1109 -1169 0
-1109 -1170 0
-1109 -1171 0
-1109 -1172 0
-1109 -1173 0
-1109 -1174 0
-1109 -1175 0
-1109 -1176 0
-1109 -1177 0
-1110 -1111 0
-1110 -1112 0
-1110 -1113 0
-1110 -1114 0
-1110 -1115 0
-1110 -1116 0
-1110 -1117 0
-1110 -1118 0
-1110 -1119 0
-1110 -1120 0
-1110 -1121 0
-1110 -1122 0
-1110 -1123 0
-1110 -1124 0
-1110 -1125 0
-1110 -1126 0
-1110 -1127 0
-1110 -1128 0
-1110 -1129 0
-1110 -1130 0
-1110 -1131 0
-1110 -1132 0
-1110 -1133 0
-1110 -1134 0
-1110 -1135 0
-1110 -1136 0
-1110 -1137 0
-1110 -1138 0
-1110 -1139 0
-1110 -1140 0
-1110 -1141 0
-1110 -1142 0
-1110 -1143 0
-1110 -1144 0
-1110 -1145 0
-1110 -1146 0
-1110 -1147 0
-1110 -1148 0
-1110 -1149 0
-1110 -1150 0
-1110 -1151 0
-1110 -1152 0
-1110 -1153 0
-1110 -1154 0
-1110 -1155 0
-1110 -1156 0
-1110 -1157 0
-1110 -1158 0
-1110 -1159 0
-1110 -1160 0
-1110 -1161 0
-1110 -1162 0
-1110 -1163 0
-1110 -1164 0
-1110 -1165 0
-1110 -1166 0
-1110 -1167 0
-1110 -1168 0
-1110 -1169 0
-1110 -1170 0
-1110 -1171 0
-1110 -1172 0
-1110 -1173 0
-1110 -1174 0
-1110 -1175 0
-1110 -1176 0
-1110 -1177 0
-1111 -1112 0
-1111 -1113 0
-1111 -1114 0
-1111 -1115 0
-1111 -1116 0
-1111 -1117 0
-1111 -1118 0
-1111 -1119 0
-1111 -1120 0
-1111 -1121 0
-1111 -1122 0
-1111 -1123 0
-1111 -1124 0
-1111 -1125 0
-1111 -1126 0
-1111 -1127 0
-1111 -1128 0
-1111 -1129 0
-1111 -1130 0
-1111 -1131 0
-1111 -1132 0
-1111 -1133 0
-1111 -1134 0
-1111 -1135 0
-1111 -1136 0
-1111 -1137 0
-1111 -1138 0
-1111 -1139 0
-1111 -1140 0
-1111 -1141 0
-1111 -1142 0
-1111 -1143 0
-1111 -1144 0
-1111 -1145 0
-1111 -1146 0
-1111 -1147 0
-1111 -1148 0
-1111 -1149 0
-1111 -1150 0
-1111 -1151 0
-1111 -1152 0
-1111 -1153 0
-1111 -1154 0
-1111 -1155 0
-1111 -1156 0
-1111 -1157 0
-1111 -1158 0
-1111 -1159 0
-1111 -1160 0
-1111 -1161 0
-1111 -1162 0
-1111 -1163 0
-1111 -1164 0
-1111 -1165 0
-1111 -1166 0
-1111 -1167 0
-1111 -1168 0
-1111 -1169 0
-1111 -1170 0
-1111 -1171 0
-1111 -1172 0
-1111 -1173 0
-1111 -1174 0
-1111 -1175 0
-1111 -1176 0
-1111 -1177 0
-1112 -1113 0
-1112 -1114 0
-1112 -1115 0
-1112 -1116 0
-1112 -1117 0
-1112 -1118 0
-1112 -1119 0
-1112 -1120 0
-1112 -1121 0
-1112 -1122 0
-1112 -1123 0
-1112 -1124 0
-1112 -1125 0
-1112 -1126 0
-1112 -1127 0
-1112 -1128 0
-1112 -1129 0
-1112 -1130 0
-1112 -1131 0
-1112 -1132 0
-1112 -1133 0
-1112 -1134 0
-1112 -1135 0
-1112 -1136 0
-1112 -1137 0
-1112 -1138 0
-1112 -1139 0
-1112 -1140 0
-1112 -1141 0
-1112 -1142 0
-1112 -1143 0
-1112 -1144 0
-1112 -1145 0
-1112 -1146 0
-1112 -1147 0
-1112 -1148 0
-1112 -1149 0
-1112 -1150 0
-1112 -1151 0
-1112 -1152 0
-1112 -1153 0
-1112 -1154 0
-1112 -1155 0
-1112 -1156 0
-1112 -1157 0
-1112 -1158 0
-1112 -1159 0
-1112 -1160 0
-1112 -1161 0
-1112 -1162 0
-1112 -1163 0
-1112 -1164 0
-1112 -1165 0
-1112 -1166 0
-1112 -1167 0
-1112 -1168 0
-1112 -1169 0
-1112 -1170 0
-1112 -1171 0
-1112 -1172 0
-1112 -1173 0
-1112 -1174 0
-1112 -1175 0
-1112 -1176 0
-1112 -1177 0
-1113 -1114 0
-1113 -1115 0
-1113 -1116 0
-1113 -1117 0
-1113 -1118 0
-1113 -1119 0
-1113 -1120 0
-1113 -1121 0
-1113 -1122 0
-1113 -1123 0
-1113 -1124 0
-1113 -1125 0
-1113 -1126 0
-1113 -1127 0
-1113 -1128 0
-1113 -1129 0
-1113 -1130 0
-1113 -1131 0
-1113 -1132 0
-1113 -1133 0
-1113 -1134 0
-1113 -1135 0
-1113 -1136 0
-1113 -1137 0
-1113 -1138 0
-1113 -1139 0
-1113 -1140 0
-1113 -1141 0
-1113 -1142 0
-1113 -1143 0
-1113 -1144 0
-1113 -1145 0
-1113 -1146 0
-1113 -1147 0
-1113 -1148 0
-1113 -1149 0
-1113 -1150 0
-1113 -1151 0
-1113 -1152 0
-1113 -1153 0
-1113 -1154 0
-1113 -1155 0
-1113 -1156 0
-1113 -1157 0
-1113 -1158 0
-1113 -1159 0
-1113 -1160 0
-1113 -1161 0
-1113 -1162 0
-1113 -1163 0
-1113 -1164 0
-1113 -1165 0
-1113 -1166 0
-1113 -1167 0
-1113 -1168 0
-1113 -1169 0
-1113 -1170 0
-1113 -1171 0
-1113 -1172 0
-1113 -1173 0
-1113 -1174 0
-1113 -1175 0
-1113 -1176 0
-1113 -1177 0
-1114 -1115 0
-1114 -1116 0
-1114 -1117 0
-1114 -1118 0
-1114 -1119 0
-1114 -1120 0
-1114 -1121 0
-1114 -1122 0
-1114 -1123 0
-1114 -1124 0
-1114 -1125 0
-1114 -1126 0
-1114 -1127 0
-1114 -1128 0
-1114 -1129 0
-1114 -1130 0
-1114 -1131 0
-1114 -1132 0
-1114 -1133 0
-1114 -1134 0
-1114 -1135 0
-1114 -1136 0
-1114 -1137 0
-1114 -1138 0
-1114 -1139 0
-1114 -1140 0
-1114 -1141 0
-1114 -1142 0
-1114 -1143 0
-1114 -1144 0
-1114 -1145 0
-1114 -1146 0
-1114 -1147 0
-1114 -1148 0
-1114 -1149 0
-1114 -1150 0
-1114 -1151 0
-1114 -1152 0
-1114 -1153 0
-1114 -1154 0
-1114 -1155 0
-1114 -1156 0
-1114 -1157 0
-1114 -1158 0
-1114 -1159 0
-1114 -1160 0
-1114 -1161 0
-1114 -1162 0
-1114 -1163 0
-1114 -1164 0
-1114 -1165 0
-1114 -1166 0
-1114 -1167 0
-1114 -1168 0
-1114 -1169 0
-1114 -1170 0
-1114 -1171 0
-1114 -1172 0
-1114 -1173 0
-1114 -1174 0
-1114 -1175 0
-1114 -1176 0
-1114 -1177 0
-1115 -1116 0
-1115 -1117 0
-1115 -1118 0
-1115 -1119 0
-1115 -1120 0
-1115 -1121 0
-1115 -1122 0
-1115 -1123 0
-1115 -1124 0
-1115 -1125 0
-1115 -1126 0
-1115 -1127 0
-1115 -1128 0
-1115 -1129 0
-1115 -1130 0
-1115 -1131 0
-1115 -1132 0
-1115 -1133 0
-1115 -1134 0
-1115 -1135 0
-1115 -1136 0
-1115 -1137 0
-1115 -1138 0
-1115 -1139 0
-1115 -1140 0
-1115 -1141 0
-1115 -1142 0
-1115 -1143 0
-1115 -1144 0
-1115 -1145 0
-1115 -1146 0
-1115 -1147 0
-1115 -1148 0
-1115 -1149 0
-1115 -1150 0
-1115 -1151 0
-1115 -1152 0
-1115 -1153 0
-1115 -1154 0
-1115 -1155 0
-1115 -1156 0
-1115 -1157 0
-1115 -1158 0
-1115 -1159 0
-1115 -1160 0
-1115 -1161 0
-1115 -1162 0
-1115 -1163 0
-1115 -1164 0
-1115 -1165 0
-1115 -1166 0
-1115 -1167 0
-1115 -1168 0
-1115 -1169 0
-1115 -1170 0
-1115 -1171 0
-1115 -1172 0
-1115 -1173 0
-1115 -1174 0
-1115 -1175 0
-1115 -1176 0
-1115 -1177 0
-1116 -1117 0
-1116 -1118 0
-1116 -1119 0
-1116 -1120 0
-1116 -1121 0
-1116 -1122 0
-1116 -1123 0
-1116 -1124 0
-1116 -1125 0
-1116 -1126 0
-1116 -1127 0
-1116 -1128 0
-1116 -1129 0
-1116 -1130 0
-1116 -1131 0
-1116 -1132 0
-1116 -1133 0
-1116 -1134 0
-1116 -1135 0
-1116 -1136 0
-1116 -1137 0
-1116 -1138 0
-1116 -1139 0
-1116 -1140 0
-1116 -1141 0
-1116 -1142 0
-1116 -1143 0
-1116 -1144 0
-1116 -1145 0
-1116 -1146 0
-1116 -1147 0
-1116 -1148 0
-1116 -1149 0
-1116 -1150 0
-1116 -1151 0
-1116 -1152 0
-1116 -1153 0
-1116 -1154 0
-1116 -1155 0
-1116 -1156 0
-1116 -1157 0
-1116 -1158 0
-1116 -1159 0
-1116 -1160 0
-1116 -1161 0
-1116 -1162 0
-1116 -1163 0
-1116 -1164 0
-1116 -1165 0
-1116 -1166 0
-1116 -1167 0
-1116 -1168 0
-1116 -1169 0
-1116 -1170 0
-1116 -1171 0
-1116 -1172 0
-1116 -1173 0
-1116 -1174 0
-1116 -1175 0
-1116 -1176 0
-1116 -1177 0
-1117 -1118 0
-1117 -1119 0
-1117 -1120 0
-1117 -1121 0
-1117 -1122 0
-1117 -1123 0
-1117 -1124 0
-1117 -1125 0
-1117 -1126 0
-1117 -1127 0
-1117 -1128 0
-1117 -1129 0
-1117 -1130 0
-1117 -1131 0
-1117 -1132 0
-1117 -1133 0
-1117 -1134 0
-1117 -1135 0
-1117 -1136 0
-1117 -1137 0
-1117 -1138 0
-1117 -1139 0
-1117 -1140 0
-1117 -1141 0
-1117 -1142 0
-1117 -1143 0
-1117 -1144 0
-1117 -1145 0
-1117 -1146 0
-1117 -1147 0
-1117 -1148 0
-1117 -1149 0
-1117 -1150 0
-1117 -1151 0
-1117 -1152 0
-1117 -1153 0
-1117 -1154 0
-1117 -1155 0
-1117 -1156 0
-1117 -1157 0
-1117 -1158 0
-1117 -1159 0
-1117 -1160 0
-1117 -1161 0
-1117 -1162 0
-1117 -1163 0
-1117 -1164 0
-1117 -1165 0
-1117 -1166 0
-1117 -1167 0
-1117 -1168 0
-1117 -1169 0
-1117 -1170 0
-1117 -1171 0
-1117 -1172 0
-1117 -1173 0
-1117 -1174 0
-1117 -1175 0
-1117 -1176 0
-1117 -1177 0
-1118 -1119 0
-1118 -1120 0
-1118 -1121 0
-1118 -1122 0
-1118 -1123 0
-1118 -1124 0
-1118 -1125 0
-1118 -1126 0
-1118 -1127 0
-1118 -1128 0
-1118 -1129 0
-1118 -1130 0
-1118 -1131 0
-1118 -1132 0
-1118 -1133 0
-1118 -1134 0
-1118 -1135 0
-1118 -1136 0
-1118 -1137 0
-1118 -1138 0
-1118 -1139 0
-1118 -1140 0
-1118 -1141 0
-1118 -1142 0
-1118 -1143 0
-1118 -1144 0
-1118 -1145 0
-1118 -1146 0
-1118 -1147 0
-1118 -1148 0
-1118 -1149 0
-1118 -1150 0
-1118 -1151 0
-1118 -1152 0
-1118 -1153 0
-1118 -1154 0
-1118 -1155 0
-1118 -1156 0
-1118 -1157 0
-1118 -1158 0
-1118 -1159 0
-1118 -1160 0
-1118 -1161 0
-1118 -1162 0
-1118 -1163 0
-1118 -1164 0
-1118 -1165 0
-1118 -1166 0
-1118 -1167 0
-1118 -1168 0
-1118 -1169 0
-1118 -1170 0
-1118 -1171 0
-1118 -1172 0
-1118 -1173 0
-1118 -1174 0
-1118 -1175 0
-1118 -1176 0
-1118 -1177 0
-1119 -1120 0
-1119 -1121 0
-1119 -1122 0
-1119 -1123 0
-1119 -1124 0
-1119 -1125 0
-1119 -1126 0
-1119 -1127 0
-1119 -1128 0
-1119 -1129 0
-1119 -1130 0
-1119 -1131 0
-1119 -1132 0
-1119 -1133 0
-1119 -1134 0
-1119 -1135 0
-1119 -1136 0
-1119 -1137 0
-1119 -1138 0
-1119 -1139 0
-1119 -1140 0
-1119 -1141 0
-1119 -1142 0
-1119 -1143 0
-1119 -1144 0
-1119 -1145 0
-1119 -1146 0
-1119 -1147 0
-1119 -1148 0
-1119 -1149 0
-1119 -1150 0
-1119 -1151 0
-1119 -1152 0
-1119 -1153 0
-1119 -1154 0
-1119 -1155 0
-1119 -1156 0
-1119 -1157 0
-1119 -1158 0
-1119 -1159 0
-1119 -1160 0
-1119 -1161 0
-1119 -1162 0
-1119 -1163 0
-1119 -1164 0
-1119 -1165 0
-1119 -1166 0
-1119 -1167 0
-1119 -1168 0
-1119 -1169 0
-1119 -1170 0
-1119 -1171 0
-1119 -1172 0
-1119 -1173 0
-1119 -1174 0
-1119 -1175 0
-1119 -1176 0
-1119 -1177 0
-1120 -1121 0
-1120 -1122 0
-1120 -1123 0
-1120 -1124 0
-1120 -1125 0
-1120 -1126 0
-1120 -1127 0
-1120 -1128 0
-1120 -1129 0
-1120 -1130 0
-1120 -1131 0
-1120 -1132 0
-1120 -1133 0
-1120 -1134 0
-1120 -1135 0
-1120 -1136 0
-1120 -1137 0
-1120 -1138 0
-1120 -1139 0
-1120 -1140 0
-1120 -1141 0
-1120 -1142 0
-1120 -1143 0
-1120 -1144 0
-1120 -1145 0
-1120 -1146 0
-1120 -1147 0
-1120 -1148 0
-1120 -1149 0
-1120 -1150 0
-1120 -1151 0
-1120 -1152 0
-1120 -1153 0
-1120 -1154 0
-1120 -1155 0
-1120 -1156 0
-1120 -1157 0
-1120 -1158 0
-1120 -1159 0
-1120 -1160 0
-1120 -1161 0
-1120 -1162 0
-1120 -1163 0
-1120 -1164 0
-1120 -1165 0
-1120 -1166 0
-1120 -1167 0
-1120 -1168 0
-1120 -1169 0
-1120 -1170 0
-1120 -1171 0
-1120 -1172 0
-1120 -1173 0
-1120 -1174 0
-1120 -1175 0
-1120 -1176 0
-1120 -1177 0
-1121 -1122 0
-1121 -1123 0
-1121 -1124 0
-1121 -1125 0
-1121 -1126 0
-1121 -1127 0
-1121 -1128 0
-1121 -1129 0
-1121 -1130 0
-1121 -1131 0
-1121 -1132 0
-1121 -1133 0
-1121 -1134 0
-1121 -1135 0
-1121 -1136 0
-1121 -1137 0
-1121 -1138 0
-1121 -1139 0
-1121 -1140 0
-1121 -1141 0
-1121 -1142 0
-1121 -1143 0
-1121 -1144 0
-1121 -1145 0
-1121 -1146 0
-1121 -1147 0
-1121 -1148 0
-1121 -1149 0
-1121 -1150 0
-1121 -1151 0
-1121 -1152 0
-1121 -1153 0
-1121 -1154 0
-1121 -1155 0
-1121 -1156 0
-1121 -1157 0
-1121 -1158 0
-1121 -1159 0
-1121 -1160 0
-1121 -1161 0
-1121 -1162 0
-1121 -1163 0
-1121 -1164 0
-1121 -1165 0
-1121 -1166 0
-1121 -1167 0
-1121 -1168 0
-1121 -1169 0
-1121 -1170 0
-1121 -1171 0
-1121 -1172 0
-1121 -1173 0
-1121 -1174 0
-1121 -1175 0
-1121 -1176 0
-1121 -1177 0
-1122 -1123 0
-1122 -1124 0
-1122 -1125 0
-1122 -1126 0
-1122 -1127 0
-1122 -1128 0
-1122 -1129 0
-1122 -1130 0
-1122 -1131 0
-1122 -1132 0
-1122 -1133 0
-1122 -1134 0
-1122 -1135 0
-1122 -1136 0
-1122 -1137 0
-1122 -1138 0
-1122 -1139 0
-1122 -1140 0
-1122 -1141 0
-1122 -1142 0
-1122 -1143 0
-1122 -1144 0
-1122 -1145 0
-1122 -1146 0
-1122 -1147 0
-1122 -1148 0
-1122 -1149 0
-1122 -1150 0
-1122 -1151 0
-1122 -1152 0
-1122 -1153 0
-1122 -1154 0
-1122 -1155 0
-1122 -1156 0
-1122 -1157 0
-1122 -1158 0
-1122 -1159 0
-1122 -1160 0
-1122 -1161 0
-1122 -1162 0
-1122 -1163 0
-1122 -1164 0
-1122 -1165 0
-1122 -1166 0
-1122 -1167 0
-1122 -1168 0
-1122 -1169 0
-1122 -1170 0
-1122 -1171 0
-1122 -1172 0
-1122 -1173 0
-1122 -1174 0
-1122 -1175 0
-1122 -1176 0
-1122 -1177 0
-1123 -1124 0
-1123 -1125 0
-1123 -1126 0
-1123 -1127 0
-1123 -1128 0
-1123 -1129 0
-1123 -1130 0
-1123 -1131 0
-1123 -1132 0
-1123 -1133 0
-1123 -1134 0
-1123 -1135 0
-1123 -1136 0
-1123 -1137 0
-1123 -1138 0
-1123 -1139 0
-1123 -1140 0
-1123 -1141 0
-1123 -1142 0
-1123 -1143 0
-1123 -1144 0
-1123 -1145 0
-1123 -1146 0
-1123 -1147 0
-1123 -1148 0
-1123 -1149 0
-1123 -1150 0
-1123 -1151 0
-1123 -1152 0
-1123 -1153 0
-1123 -1154 0
-1123 -1155 0
-1123 -1156 0
-1123 -1157 0
-1123 -1158 0
-1123 -1159 0
-1123 -1160 0
-1123 -1161 0
-1123 -1162 0
-1123 -1163 0
-1123 -1164 0
-1123 -1165 0
-1123 -1166 0
-1123 -1167 0
-1123 -1168 0
-1123 -1169 0
-1123 -1170 0
-1123 -1171 0
-1123 -1172 0
-1123 -1173 0
-1123 -1174 0
-1123 -1175 0
-1123 -1176 0
-1123 -1177 0
-1124 -1125 0
-1124 -1126 0
-1124 -1127 0
-1124 -1128 0
-1124 -1129 0
-1124 -1130 0
-1124 -1131 0
-1124 -1132 0
-1124 -1133 0
-1124 -1134 0
-1124 -1135 0
-1124 -1136 0
-1124 -1137 0
-1124 -1138 0
-1124 -1139 0
-1124 -1140 0
-1124 -1141 0
-1124 -1142 0
-1124 -1143 0
-1124 -1144 0
-1124 -1145 0
-1124 -1146 0
-1124 -1147 0
-1124 -1148 0
-1124 -1149 0
-1124 -1150 0
-1124 -1151 0
-1124 -1152 0
-1124 -1153 0
-1124 -1154 0
-1124 -1155 0
-1124 -1156 0
-1124 -1157 0
-1124 -1158 0
-1124 -1159 0
-1124 -1160 0
-1124 -1161 0
-1124 -1162 0
-1124 -1163 0
-1124 -1164 0
-1124 -1165 0
-1124 -1166 0
-1124 -1167 0
-1124 -1168 0
-1124 -1169 0
-1124 -1170 0
-1124 -1171 0
-1124 -1172 0
-1124 -1173 0
-1124 -1174 0
-1124 -1175 0
-1124 -1176 0
-1124 -1177 0
-1125 -1126 0
-1125 -1127 0
-1125 -1128 0
-1125 -1129 0
-1125 -1130 0
-1125 -1131 0
-1125 -1132 0
-1125 -1133 0
-1125 -1134 0
-1125 -1135 0
-1125 -1136 0
-1125 -1137 0
-1125 -1138 0
-1125 -1139 0
-1125 -1140 0
-1125 -1141 0
-1125 -1142 0
-1125 -1143 0
-1125 -1144 0
-1125 -1145 0
-1125 -1146 0
-1125 -1147 0
-1125 -1148 0
-1125 -1149 0
-1125 -1150 0
-1125 -1151 0
-1125 -1152 0
-1125 -1153 0
-1125 -1154 0
-1125 -1155 0
-1125 -1156 0
-1125 -1157 0
-1125 -1158 0
-1125 -1159 0
-1125 -1160 0
-1125 -1161 0
-1125 -1162 0
-1125 -1163 0
-1125 -1164 0
-1125 -1165 0
-1125 -1166 0
-1125 -1167 0
-1125 -1168 0
-1125 -1169 0
-1125 -1170 0
-1125 -1171 0
-1125 -1172 0
-1125 -1173 0
-1125 -1174 0
-1125 -1175 0
-1125 -1176 0
-1125 -1177 0
-1126 -1127 0
-1126 -1128 0
-1126 -1129 0
-1126 -1130 0
-1126 -1131 0
-1126 -1132 0
-1126 -1133 0
-1126 -1134 0
-1126 -1135 0
-1126 -1136 0
-1126 -1137 0
-1126 -1138 0
-1126 -1139 0
-1126 -1140 0
-1126 -1141 0
-1126 -1142 0
-1126 -1143 0
-1126 -1144 0
-1126 -1145 0
-1126 -1146 0
-1126 -1147 0
-1126 -1148 0
-1126 -1149 0
-1126 -1150 0
-1126 -1151 0
-1126 -1152 0
-1126 -1153 0
-1126 -1154 0
-1126 -1155 0
-1126 -1156 0
-1126 -1157 0
-1126 -1158 0
-1126 -1159 0
-1126 -1160 0
-1126 -1161 0
-1126 -1162 0
-1126 -1163 0
-1126 -1164 0
-1126 -1165 0
-1126 -1166 0
-1126 -1167 0
-1126 -1168 0
-1126 -1169 0
-1126 -1170 0
-1126 -1171 0
-1126 -1172 0
-1126 -1173 0
-1126 -1174 0
-1126 -1175 0
-1126 -1176 0
-1126 -1177 0
-1127 -1128 0
-1127 -1129 0
-1127 -1130 0
-1127 -1131 0
-1127 -1132 0
-1127 -1133 0
-1127 -1134 0
-1127 -1135 0
-1127 -1136 0
-1127 -1137 0
-1127 -1138 0
-1127 -1139 0
-1127 -1140 0
-1127 -1141 0
-1127 -1142 0
-1127 -1143 0
-1127 -1144 0
-1127 -1145 0
-1127 -1146 0
-1127 -1147 0
-1127 -1148 0
-1127 -1149 0
-1127 -1150 0
-1127 -1151 0
-1127 -1152 0
-1127 -1153 0
-1127 -1154 0
-1127 -1155 0
-1127 -1156 0
-1127 -1157 0
-1127 -1158 0
-1127 -1159 0
-1127 -1160 0
-1127 -1161 0
-1127 -1162 0
-1127 -1163 0
-1127 -1164 0
-1127 -1165 0
-1127 -1166 0
-1127 -1167 0
-1127 -1168 0
-1127 -1169 0
-1127 -1170 0
-1127 -1171 0
-1127 -1172 0
-1127 -1173 0
-1127 -1174 0
-1127 -1175 0
-1127 -1176 0
-1127 -1177 0
-1128 -1129 0
-1128 -1130 0
-1128 -1131 0
-1128 -1132 0
-1128 -1133 0
-1128 -1134 0
-1128 -1135 0
-1128 -1136 0
-1128 -1137 0
-1128 -1138 0
-1128 -1139 0
-1128 -1140 0
-1128 -1141 0
-1128 -1142 0
-1128 -1143 0
-1128 -1144 0
-1128 -1145 0
-1128 -1146 0
-1128 -1147 0
-1128 -1148 0
-1128 -1149 0
-1128 -1150 0
-1128 -1151 0
-1128 -1152 0
-1128 -1153 0
-1128 -1154 0
-1128 -1155 0
-1128 -1156 0
-1128 -1157 0
-1128 -1158 0
-1128 -1159 0
-1128 -1160 0
-1128 -1161 0
-1128 -1162 0
-1128 -1163 0
-1128 -1164 0
-1128 -1165 0
-1128 -1166 0
-1128 -1167 0
-1128 -1168 0
-1128 -1169 0
-1128 -1170 0
-1128 -1171 0
-1128 -1172 0
-1128 -1173 0
-1128 -1174 0
-1128 -1175 0
-1128 -1176 0
-1128 -1177 0
-1129 -1130 0
-1129 -1131 0
-1129 -1132 0
-1129 -1133 0
-1129 -1134 0
-1129 -1135 0
-1129 -1136 0
-1129 -1137 0
-1129 -1138 0
-1129 -1139 0
-1129 -1140 0
-1129 -1141 0
-1129 -1142 0
-1129 -1143 0
-1129 -1144 0
-1129 -1145 0
-1129 -1146 0
-1129 -1147 0
-1129 -1148 0
-1129 -1149 0
-1129 -1150 0
-1129 -1151 0
-1129 -1152 0
-1129 -1153 0
-1129 -1154 0
-1129 -1155 0
-1129 -1156 0
-1129 -1157 0
-1129 -1158 0
-1129 -1159 0
-1129 -1160 0
-1129 -1161 0
-1129 -1162 0
-1129 -1163 0
-1129 -1164 0
-1129 -1165 0
-1129 -1166 0
-1129 -1167 0
-1129 -1168 0
-1129 -1169 0
-1129 -1170 0
-1129 -1171 0
-1129 -1172 0
-1129 -1173 0
-1129 -1174 0
-1129 -1175 0
-1129 -1176 0
-1129 -1177 0
-1130 -1131 0
-1130 -1132 0
-1130 -1133 0
-1130 -1134 0
-1130 -1135 0
-1130 -1136 0
-1130 -1137 0
-1130 -1138 0
-1130 -1139 0
-1130 -1140 0
-1130 -1141 0
-1130 -1142 0
-1130 -1143 0
-1130 -1144 0
-1130 -1145 0
-1130 -1146 0
-1130 -1147 0
-1130 -1148 0
-1130 -1149 0
-1130 -1150 0
-1130 -1151 0
-1130 -1152 0
-1130 -1153 0
-1130 -1154 0
-1130 -1155 0
-1130 -1156 0
-1130 -1157 0
-1130 -1158 0
-1130 -1159 0
-1130 -1160 0
-1130 -1161 0
-1130 -1162 0
-1130 -1163 0
-1130 -1164 0
-1130 -1165 0
-1130 -1166 0
-1130 -1167 0
-1130 -1168 0
-1130 -1169 0
-1130 -1170 0
-1130 -1171 0
-1130 -1172 0
-1130 -1173 0
-1130 -1174 0
-1130 -1175 0
-1130 -1176 0
-1130 -1177 0
-1131 -1132 0
-1131 -1133 0
-1131 -1134 0
-1131 -1135 0
-1131 -1136 0
-1131 -1137 0
-1131 -1138 0
-1131 -1139 0
-1131 -1140 0
-1131 -1141 0
-1131 -1142 0
-1131 -1143 0
-1131 -1144 0
-1131 -1145 0
-1131 -1146 0
-1131 -1147 0
-1131 -1148 0
-1131 -1149 0
-1131 -1150 0
-1131 -1151 0
-1131 -1152 0
-1131 -1153 0
-1131 -1154 0
-1131 -1155 0
-1131 -1156 0
-1131 -1157 0
-1131 -1158 0
-1131 -1159 0
-1131 -1160 0
-1131 -1161 0
-1131 -1162 0
-1131 -1163 0
-1131 -1164 0
-1131 -1165 0
-1131 -1166 0
-1131 -1167 0
-1131 -1168 0
-1131 -1169 0
-1131 -1170 0
-1131 -1171 0
-1131 -1172 0
-1131 -1173 0
-1131 -1174 0
-1131 -1175 0
-1131 -1176 0
-1131 -1177 0
-1132 -1133 0
-1132 -1134 0
-1132 -1135 0
-1132 -1136 0
-1132 -1137 0
-1132 -1138 0
-1132 -1139 0
-1132 -1140 0
-1132 -1141 0
-1132 -1142 0
-1132 -1143 0
-1132 -1144 0
-1132 -1145 0
-1132 -1146 0
-1132 -1147 0
-1132 -1148 0
-1132 -1149 0
-1132 -1150 0
-1132 -1151 0
-1132 -1152 0
-1132 -1153 0
-1132 -1154 0
-1132 -1155 0
-1132 -1156 0
-1132 -1157 0
-1132 -1158 0
-1132 -1159 0
-1132 -1160 0
-1132 -1161 0
-1132 -1162 0
-1132 -1163 0
-1132 -1164 0
-1132 -1165 0
-1132 -1166 0
-1132 -1167 0
-1132 -1168 0
-1132 -1169 0
-1132 -1170 0
-1132 -1171 0
-1132 -1172 0
-1132 -1173 0
-1132 -1174 0
-1132 -1175 0
-1132 -1176 0
-1132 -1177 0
-1133 -1134 0
-1133 -1135 0
-1133 -1136 0
-1133 -1137 0
-1133 -1138 0
-1133 -1139 0
-1133 -1140 0
-1133 -1141 0
-1133 -1142 0
-1133 -1143 0
-1133 -1144 0
-1133 -1145 0
-1133 -1146 0
-1133 -1147 0
-1133 -1148 0
-1133 -1149 0
-1133 -1150 0
-1133 -1151 0
-1133 -1152 0
-1133 -1153 0
-1133 -1154 0
-1133 -1155 0
-1133 -1156 0
-1133 -1157 0
-1133 -1158 0
-1133 -1159 0
-1133 -1160 0
-1133 -1161 0
-1133 -1162 0
-1133 -1163 0
-1133 -1164 0
-1133 -1165 0
-1133 -1166 0
-1133 -1167 0
-1133 -1168 0
-1133 -1169 0
-1133 -1170 0
-1133 -1171 0
-1133 -1172 0
-1133 -1173 0
-1133 -1174 0
-1133 -1175 0
-1133 -1176 0
-1133 -1177 0
-1134 -1135 0
-1134 -1136 0
-1134 -1137 0
-1134 -1138 0
-1134 -1139 0
-1134 -1140 0
-1134 -1141 0
-1134 -1142 0
-1134 -1143 0
-1134 -1144 0
-1134 -1145 0
-1134 -1146 0
-1134 -1147 0
-1134 -1148 0
-1134 -1149 0
-1134 -1150 0
-1134 -1151 0
-1134 -1152 0
-1134 -1153 0
-1134 -1154 0
-1134 -1155 0
-1134 -1156 0
-1134 -1157 0
-1134 -1158 0
-1134 -1159 0
-1134 -1160 0
-1134 -1161 0
-1134 -1162 0
-1134 -1163 0
-1134 -1164 0
-1134 -1165 0
-1134 -1166 0
-1134 -1167 0
-1134 -1168 0
-1134 -1169 0
-1134 -1170 0
-1134 -1171 0
-1134 -1172 0
-1134 -1173 0
-1134 -1174 0
-1134 -1175 0
-1134 -1176 0
-1134 -1177 0
-1135 -1136 0
-1135 -1137 0
-1135 -1138 0
-1135 -1139 0
-1135 -1140 0
-1135 -1141 0
-1135 -1142 0
-1135 -1143 0
-1135 -1144 0
-1135 -1145 0
-1135 -1146 0
-1135 -1147 0
-1135 -1148 0
-1135 -1149 0
-1135 -1150 0
-1135 -1151 0
-1135 -1152 0
-1135 -1153 0
-1135 -1154 0
-1135 -1155 0
-1135 -1156 0
-1135 -1157 0
-1135 -1158 0
-1135 -1159 0
-1135 -1160 0
-1135 -1161 0
-1135 -1162 0
-1135 -1163 0
-1135 -1164 0
-1135 -1165 0
-1135 -1166 0
-1135 -1167 0
-1135 -1168 0
-1135 -1169 0
-1135 -1170 0
-1135 -1171 0
-1135 -1172 0
-1135 -1173 0
-1135 -1174 0
-1135 -1175 0
-1135 -1176 0
-1135 -1177 0
-1136 -1137 0
-1136 -1138 0
-1136 -1139 0
-1136 -1140 0
-1136 -1141 0
-1136 -1142 0
-1136 -1143 0
-1136 -1144 0
-1136 -1145 0
-1136 -1146 0
-1136 -1147 0
-1136 -1148 0
-1136 -1149 0
-1136 -1150 0
-1136 -1151 0
-1136 -1152 0
-1136 -1153 0
-1136 -1154 0
-1136 -1155 0
-1136 -1156 0
-1136 -1157 0
-1136 -1158 0
-1136 -1159 0
-1136 -1160 0
-1136 -1161 0
-1136 -1162 0
-1136 -1163 0
-1136 -1164 0
-1136 -1165 0
-1136 -1166 0
-1136 -1167 0
-1136 -1168 0
-1136 -1169 0
-1136 -1170 0
-1136 -1171 0
-1136 -1172 0
-1136 -1173 0
-1136 -1174 0
-1136 -1175 0
-1136 -1176 0
-1136 -1177 0
-1137 -1138 0
-1137 -1139 0
-1137 -1140 0
-1137 -1141 0
-1137 -1142 0
-1137 -1143 0
-1137 -1144 0
-1137 -1145 0
-1137 -1146 0
-1137 -1147 0
-1137 -1148 0
-1137 -1149 0
-1137 -1150 0
-1137 -1151 0
-1137 -1152 0
-1137 -1153 0
-1137 -1154 0
-1137 -1155 0
-1137 -1156 0
-1137 -1157 0
-1137 -1158 0
-1137 -1159 0
-1137 -1160 0
-1137 -1161 0
-1137 -1162 0
-1137 -1163 0
-1137 -1164 0
-1137 -1165 0
-1137 -1166 0
-1137 -1167 0
-1137 -1168 0
-1137 -1169 0
-1137 -1170 0
-1137 -1171 0
-1137 -1172 0
-1137 -1173 0
-1137 -1174 0
-1137 -1175 0
-1137 -1176 0
-1137 -1177 0
-1138 -1139 0
-1138 -1140 0
-1138 -1141 0
-1138 -1142 0
-1138 -1143 0
-1138 -1144 0
-1138 -1145 0
-1138 -1146 0
-1138 -1147 0
-1138 -1148 0
-1138 -1149 0
-1138 -1150 0
-1138 -1151 0
-1138 -1152 0
-1138 -1153 0
-1138 -1154 0
-1138 -1155 0
-1138 -1156 0
-1138 -1157 0
-1138 -1158 0
-1138 -1159 0
-1138 -1160 0
-1138 -1161 0
-1138 -1162 0
-1138 -1163 0
-1138 -1164 0
-1138 -1165 0
-1138 -1166 0
-1138 -1167 0
-1138 -1168 0
-1138 -1169 0
-1138 -1170 0
-1138 -1171 0
-1138 -1172 0
-1138 -1173 0
-1138 -1174 0
-1138 -1175 0
-1138 -1176 0
-1138 -1177 0
-1139 -1140 0
-1139 -1141 0
-1139 -1142 0
-1139 -1143 0
-1139 -1144 0
-1139 -1145 0
-1139 -1146 0
-1139 -1147 0
-1139 -1148 0
-1139 -1149 0
-1139 -1150 0
-1139 -1151 0
-1139 -1152 0
-1139 -1153 0
-1139 -1154 0
-1139 -1155 0
-1139 -1156 0
-1139 -1157 0
-1139 -1158 0
-1139 -1159 0
-1139 -1160 0
-1139 -1161 0
-1139 -1162 0
-1139 -1163 0
-1139 -1164 0
-1139 -1165 0
-1139 -1166 0
-1139 -1167 0
-1139 -1168 0
-1139 -1169 0
-1139 -1170 0
-1139 -1171 0
-1139 -1172 0
-1139 -1173 0
-1139 -1174 0
-1139 -1175 0
-1139 -1176 0
-1139 -1177 0
-1140 -1141 0
-1140 -1142 0
-1140 -1143 0
-1140 -1144 0
-1140 -1145 0
-1140 -1146 0
-1140 -1147 0
-1140 -1148 0
-1140 -1149 0
-1140 -1150 0
-1140 -1151 0
-1140 -1152 0
-1140 -1153 0
-1140 -1154 0
-1140 -1155 0
-1140 -1156 0
-1140 -1157 0
-1140 -1158 0
-1140 -1159 0
-1140 -1160 0
-1140 -1161 0
-1140 -1162 0
-1140 -1163 0
-1140 -1164 0
-1140 -1165 0
-1140 -1166 0
-1140 -1167 0
-1140 -1168 0
-1140 -1169 0
-1140 -1170 0
-1140 -1171 0
-1140 -1172 0
-1140 -1173 0
-1140 -1174 0
-1140 -1175 0
-1140 -1176 0
-1140 -1177 0
-1141 -1142 0
-1141 -1143 0
-1141 -1144 0
-1141 -1145 0
-1141 -1146 0
-1141 -1147 0
-1141 -1148 0
-1141 -1149 0
-1141 -1150 0
-1141 -1151 0
-1141 -1152 0
-1141 -1153 0
-1141 -1154 0
-1141 -1155 0
-1141 -1156 0
-1141 -1157 0
-1141 -1158 0
-1141 -1159 0
-1141 -1160 0
-1141 -1161 0
-1141 -1162 0
-1141 -1163 0
-1141 -1164 0
-1141 -1165 0
-1141 -1166 0
-1141 -1167 0
-1141 -1168 0
-1141 -1169 0
-1141 -1170 0
-1141 -1171 0
-1141 -1172 0
-1141 -1173 0
-1141 -1174 0
-1141 -1175 0
-1141 -1176 0
-1141 -1177 0
-1142 -1143 0
-1142 -1144 0
-1142 -1145 0
-1142 -1146 0
-1142 -1147 0
-1142 -1148 0
-1142 -1149 0
-1142 -1150 0
-1142 -1151 0
-1142 -1152 0
-1142 -1153 0
-1142 -1154 0
-1142 -1155 0
-1142 -1156 0
-1142 -1157 0
-1142 -1158 0
-1142 -1159 0
-1142 -1160 0
-1142 -1161 0
-1142 -1162 0
-1142 -1163 0
-1142 -1164 0
-1142 -1165 0
-1142 -1166 0
-1142 -1167 0
-1142 -1168 0
-1142 -1169 0
-1142 -1170 0
-1142 -1171 0
-1142 -1172 0
-1142 -1173 0
-1142 -1174 0
-1142 -1175 0
-1142 -1176 0
-1142 -1177 0
-1143 -1144 0
-1143 -1145 0
-1143 -1146 0
-1143 -1147 0
-1143 -1148 0
-1143 -1149 0
-1143 -1150 0
-1143 -1151 0
-1143 -1152 0
-1143 -1153 0
-1143 -1154 0
-1143 -1155 0
-1143 -1156 0
-1143 -1157 0
-1143 -1158 0
-1143 -1159 0
-1143 -1160 0
-1143 -1161 0
-1143 -1162 0
-1143 -1163 0
-1143 -1164 0
-1143 -1165 0
-1143 -1166 0
-1143 -1167 0
-1143 -1168 0
-1143 -1169 0
-1143 -1170 0
-1143 -1171 0
-1143 -1172 0
-1143 -1173 0
-1143 -1174 0
-1143 -1175 0
-1143 -1176 0
-1143 -1177 0
-1144 -1145 0
-1144 -1146 0
-1144 -1147 0
-1144 -1148 0
-1144 -1149 0
-1144 -1150 0
-1144 -1151 0
-1144 -1152 0
-1144 -1153 0
-1144 -1154 0
-1144 -1155 0
-1144 -1156 0
-1144 -1157 0
-1144 -1158 0
-1144 -1159 0
-1144 -1160 0
-1144 -1161 0
-1144 -1162 0
-1144 -1163 0
-1144 -1164 0
-1144 -1165 0
-1144 -1166 0
-1144 -1167 0
-1144 -1168 0
-1144 -1169 0
-1144 -1170 0
-1144 -1171 0
-1144 -1172 0
-1144 -1173 0
-1144 -1174 0
-1144 -1175 0
-1144 -1176 0
-1144 -1177 0
-1145 -1146 0
-1145 -1147 0
-1145 -1148 0
-1145 -1149 0
-1145 -1150 0
-1145 -1151 0
-1145 -1152 0
-1145 -1153 0
-1145 -1154 0
-1145 -1155 0
-1145 -1156 0
-1145 -1157 0
-1145 -1158 0
-1145 -1159 0
-1145 -1160 0
-1145 -1161 0
-1145 -1162 0
-1145 -1163 0
-1145 -1164 0
-1145 -1165 0
-1145 -1166 0
-1145 -1167 0
-1145 -1168 0
-1145 -1169 0
-1145 -1170 0
-1145 -1171 0
-1145 -1172 0
-1145 -1173 0
-1145 -1174 0
-1145 -1175 0
-1145 -1176 0
-1145 -1177 0
-1146 -1147 0
-1146 -1148 0
-1146 -1149 0
-1146 -1150 0
-1146 -1151 0
-1146 -1152 0
-1146 -1153 0
-1146 -1154 0
-1146 -1155 0
-1146 -1156 0
-1146 -1157 0
-1146 -1158 0
-1146 -1159 0
-1146 -1160 0
-1146 -1161 0
-1146 -1162 0
-1146 -1163 0
-1146 -1164 0
-1146 -1165 0
-1146 -1166 0
-1146 -1167 0
-1146 -1168 0
-1146 -1169 0
-1146 -1170 0
-1146 -1171 0
-1146 -1172 0
-1146 -1173 0
-1146 -1174 0
-1146 -1175 0
-1146 -1176 0
-1146 -1177 0
-1147 -1148 0
-1147 -1149 0
-1147 -1150 0
-1147 -1151 0
-1147 -1152 0
-1147 -1153 0
-1147 -1154 0
-1147 -1155 0
-1147 -1156 0
-1147 -1157 0
-1147 -1158 0
-1147 -1159 0
-1147 -1160 0
-1147 -1161 0
-1147 -1162 0
-1147 -1163 0
-1147 -1164 0
-1147 -1165 0
-1147 -1166 0
-1147 -1167 0
-1147 -1168 0
-1147 -1169 0
-1147 -1170 0
-1147 -1171 0
-1147 -1172 0
-1147 -1173 0
-1147 -1174 0
-1147 -1175 0
-1147 -1176 0
-1147 -1177 0
-1148 -1149 0
-1148 -1150 0
-1148 -1151 0
-1148 -1152 0
-1148 -1153 0
-1148 -1154 0
-1148 -1155 0
-1148 -1156 0
-1148 -1157 0
-1148 -1158 0
-1148 -1159 0
-1148 -1160 0
-1148 -1161 0
-1148 -1162 0
-1148 -1163 0
-1148 -1164 0
-1148 -1165 0
-1148 -1166 0
-1148 -1167 0
-1148 -1168 0
-1148 -1169 0
-1148 -1170 0
-1148 -1171 0
-1148 -1172 0
-1148 -1173 0
-1148 -1174 0
-1148 -1175 0
-1148 -1176 0
-1148 -1177 0
-1149 -1150 0
-1149 -1151 0
-1149 -1152 0
-1149 -1153 0
-1149 -1154 0
-1149 -1155 0
-1149 -1156 0
-1149 -1157 0
-1149 -1158 0
-1149 -1159 0
-1149 -1160 0
-1149 -1161 0
-1149 -1162 0
-1149 -1163 0
-1149 -1164 0
-1149 -1165 0
-1149 -1166 0
-1149 -1167 0
-1149 -1168 0
-1149 -1169 0
-1149 -1170 0
-1149 -1171 0
-1149 -1172 0
-1149 -1173 0
-1149 -1174 0
-1149 -1175 0
-1149 -1176 0
-1149 -1177 0
-1150 -1151 0
-1150 -1152 0
-1150 -1153 0
-1150 -1154 0
-1150 -1155 0
-1150 -1156 0
-1150 -1157 0
-1150 -1158 0
-1150 -1159 0
-1150 -1160 0
-1150 -1161 0
-1150 -1162 0
-1150 -1163 0
-1150 -1164 0
-1150 -1165 0
-1150 -1166 0
-1150 -1167 0
-1150 -1168 0
-1150 -1169 0
-1150 -1170 0
-1150 -1171 0
-1150 -1172 0
-1150 -1173 0
-1150 -1174 0
-1150 -1175 0
-1150 -1176 0
-1150 -1177 0
-1151 -1152 0
-1151 -1153 0
-1151 -1154 0
-1151 -1155 0
-1151 -1156 0
-1151 -1157 0
-1151 -1158 0
-1151 -1159 0
-1151 -1160 0
-1151 -1161 0
-1151 -1162 0
-1151 -1163 0
-1151 -1164 0
-1151 -1165 0
-1151 -1166 0
-1151 -1167 0
-1151 -1168 0
-1151 -1169 0
-1151 -1170 0
-1151 -1171 0
-1151 -1172 0
-1151 -1173 0
-1151 -1174 0
-1151 -1175 0
-1151 -1176 0
-1151 -1177 0
-1152 -1153 0
-1152 -1154 0
-1152 -1155 0
-1152 -1156 0
-1152 -1157 0
-1152 -1158 0
-1152 -1159 0
-1152 -1160 0
-1152 -1161 0
-1152 -1162 0
-1152 -1163 0
-1152 -1164 0
-1152 -1165 0
-1152 -1166 0
-1152 -1167 0
-1152 -1168 0
-1152 -1169 0
-1152 -1170 0
-1152 -1171 0
-1152 -1172 0
-1152 -1173 0
-1152 -1174 0
-1152 -1175 0
-1152 -1176 0
-1152 -1177 0
-1153 -1154 0
-1153 -1155 0
-1153 -1156 0
-1153 -1157 0
-1153 -1158 0
-1153 -1159 0
-1153 -1160 0
-1153 -1161 0
-1153 -1162 0
-1153 -1163 0
-1153 -1164 0
-1153 -1165 0
-1153 -1166 0
-1153 -1167 0
-1153 -1168 0
-1153 -1169 0
-1153 -1170 0
-1153 -1171 0
-1153 -1172 0
-1153 -1173 0
-1153 -1174 0
-1153 -1175 0
-1153 -1176 0
-1153 -1177 0
-1154 -1155 0
-1154 -1156 0
-1154 -1157 0
-1154 -1158 0
-1154 -1159 0
-1154 -1160 0
-1154 -1161 0
-1154 -1162 0
-1154 -1163 0
-1154 -1164 0
-1154 -1165 0
-1154 -1166 0
-1154 -1167 0
-1154 -1168 0
-1154 -1169 0
-1154 -1170 0
-1154 -1171 0
-1154 -1172 0
-1154 -1173 0
-1154 -1174 0
-1154 -1175 0
-1154 -1176 0
-1154 -1177 0
-1155 -1156 0
-1155 -1157 0
-1155 -1158 0
-1155 -1159 0
-1155 -1160 0
-1155 -1161 0
-1155 -1162 0
-1155 -1163 0
-1155 -1164 0
-1155 -1165 0
-1155 -1166 0
-1155 -1167 0
-1155 -1168 0
-1155 -1169 0
-1155 -1170 0
-1155 -1171 0
-1155 -1172 0
-1155 -1173 0
-1155 -1174 0
-1155 -1175 0
-1155 -1176 0
-1155 -1177 0
-1156 -1157 0
-1156 -1158 0
-1156 -1159 0
-1156 -1160 0
-1156 -1161 0
-1156 -1162 0
-1156 -1163 0
-1156 -1164 0
-1156 -1165 0
-1156 -1166 0
-1156 -1167 0
-1156 -1168 0
-1156 -1169 0
-1156 -1170 0
-1156 -1171 0
-1156 -1172 0
-1156 -1173 0
-1156 -1174 0
-1156 -1175 0
-1156 -1176 0
-1156 -1177 0
-1157 -1158 0
-1157 -1159 0
-1157 -1160 0
-1157 -1161 0
-1157 -1162 0
-1157 -1163 0
-1157 -1164 0
-1157 -1165 0
-1157 -1166 0
-1157 -1167 0
-1157 -1168 0
-1157 -1169 0
-1157 -1170 0
-1157 -1171 0
-1157 -1172 0
-1157 -1173 0
-1157 -1174 0
-1157 -1175 0
-1157 -1176 0
-1157 -1177 0
-1158 -1159 0
-1158 -1160 0
-1158 -1161 0
-1158 -1162 0
-1158 -1163 0
-1158 -1164 0
-1158 -1165 0
-1158 -1166 0
-1158 -1167 0
-1158 -1168 0
-1158 -1169 0
-1158 -1170 0
-1158 -1171 0
-1158 -1172 0
-1158 -1173 0
-1158 -1174 0
-1158 -1175 0
-1158 -1176 0
-1158 -1177 0
-1159 -1160 0
-1159 -1161 0
-1159 -1162 0
-1159 -1163 0
-1159 -1164 0
-1159 -1165 0
-1159 -1166 0
-1159 -1167 0
-1159 -1168 0
-1159 -1169 0
-1159 -1170 0
-1159 -1171 0
-1159 -1172 0
-1159 -1173 0
-1159 -1174 0
-1159 -1175 0
-1159 -1176 0
-1159 -1177 0
-1160 -1161 0
-1160 -1162 0
-1160 -1163 0
-1160 -1164 0
-1160 -1165 0
-1160 -1166 0
-1160 -1167 0
-1160 -1168 0
-1160 -1169 0
-1160 -1170 0
-1160 -1171 0
-1160 -1172 0
-1160 -1173 0
-1160 -1174 0
-1160 -1175 0
-1160 -1176 0
-1160 -1177 0
-1161 -1162 0
-1161 -1163 0
-1161 -1164 0
-1161 -1165 0
-1161 -1166 0
-1161 -1167 0
-1161 -1168 0
-1161 -1169 0
-1161 -1170 0
-1161 -1171 0
-1161 -1172 0
-1161 -1173 0
-1161 -1174 0
-1161 -1175 0
-1161 -1176 0
-1161 -1177 0
-1162 -1163 0
-1162 -1164 0
-1162 -1165 0
-1162 -1166 0
-1162 -1167 0
-1162 -1168 0
-1162 -1169 0
-1162 -1170 0
-1162 -1171 0
-1162 -1172 0
-1162 -1173 0
-1162 -1174 0
-1162 -1175 0
-1162 -1176 0
-1162 -1177 0
-1163 -1164 0
-1163 -1165 0
-1163 -1166 0
-1163 -1167 0
-1163 -1168 0
-1163 -1169 0
-1163 -1170 0
-1163 -1171 0
-1163 -1172 0
-1163 -1173 0
-1163 -1174 0
-1163 -1175 0
-1163 -1176 0
-1163 -1177 0
-1164 -1165 0
-1164 -1166 0
-1164 -1167 0
-1164 -1168 0
-1164 -1169 0
-1164 -1170 0
-1164 -1171 0
-1164 -1172 0
-1164 -1173 0
-1164 -1174 0
-1164 -1175 0
-1164 -1176 0
-1164 -1177 0
-1165 -1166 0
-1165 -1167 0
-1165 -1168 0
-1165 -1169 0
-1165 -1170 0
-1165 -1171 0
-1165 -1172 0
-1165 -1173 0
-1165 -1174 0
-1165 -1175 0
-1165 -1176 0
-1165 -1177 0
-1166 -1167 0
-1166 -1168 0
-1166 -1169 0
-1166 -1170 0
-1166 -1171 0
-1166 -1172 0
-1166 -1173 0
-1166 -1174 0
-1166 -1175 0
-1166 -1176 0
-1166 -1177 0
-1167 -1168 0
-1167 -1169 0
-1167 -1170 0
-1167 -1171 0
-1167 -1172 0
-1167 -1173 0
-1167 -1174 0
-1167 -1175 0
-1167 -1176 0
-1167 -1177 0
-1168 -1169 0
-1168 -1170 0
-1168 -1171 0
-1168 -1172 0
-1168 -1173 0
-1168 -1174 0
-1168 -1175 0
-1168 -1176 0
-1168 -1177 0
-1169 -1170 0
-1169 -1171 0
-1169 -1172 0
-1169 -1173 0
-1169 -1174 0
-1169 -1175 0
-1169 -1176 0
-1169 -1177 0
-1170 -1171 0
-1170 -1172 0
-1170 -1173 0
-1170 -1174 0
-1170 -1175 0
-1170 -1176 0
-1170 -1177 0
-1171 -1172 0
-1171 -1173 0
-1171 -1174 0
-1171 -1175 0
-1171 -1176 0
-1171 -1177 0
-1172 -1173 0
-1172 -1174 0
-1172 -1175 0
-1172 -1176 0
-1172 -1177 0
-1173 -1174 0
-1173 -1175 0
-1173 -1176 0
-1173 -1177 0
-1174 -1175 0
-1174 -1176 0
-1174 -1177 0
-1175 -1176 0
-1175 -1177 0
-1176 -1177 0
-1094 408 0
-1094 556 0
-1094 -378 0
-1094 -379 0
-1094 -380 0
-1094 -381 0
-1094 -382 0
-1094 -396 578 0
-1094 -396 -461 0
-1094 -396 -485 0
-1094 -396 -509 0
-1094 -396 -371 -393 0
-1094 -397 579 0
-1094 -397 -462 0
-1094 -397 -486 0
-1094 -397 -510 0
-1094 -397 -371 -394 0
-1094 -398 580 0
-1094 -398 -463 0
-1094 -398 -487 0
-1094 -398 -511 0
-1094 -398 -371 -395 0
-1094 -399 0
-1095 408 0
-1095 557 0
-1095 -377 0
-1095 -379 0
-1095 -380 0
-1095 -381 0
-1095 -382 0
-1095 -396 578 0
-1095 -396 -465 0
-1095 -396 -489 0
-1095 -396 -513 0
-1095 -396 -372 -393 0
-1095 -397 579 0
-1095 -397 -466 0
-1095 -397 -490 0
-1095 -397 -514 0
-1095 -397 -372 -394 0
-1095 -398 580 0
-1095 -398 -467 0
-1095 -398 -491 0
-1095 -398 -515 0
-1095 -398 -372 -395 0
-1095 -399 0
-1096 408 0
-1096 558 0
-1096 -377 0
-1096 -378 0
-1096 -380 0
-1096 -381 0
-1096 -382 0
-1096 -396 578 0
-1096 -396 -469 0
-1096 -396 -493 0
-1096 -396 -517 0
-1096 -396 -373 -393 0
-1096 -397 579 0
-1096 -397 -470 0
-1096 -397 -494 0
-1096 -397 -518 0
-1096 -397 -373 -394 0
-1096 -398 580 0
-1096 -398 -471 0
-1096 -398 -495 0
-1096 -398 -519 0
-1096 -398 -373 -395 0
-1096 -399 0
-1097 408 0
-1097 559 0
-1097 -377 0
-1097 -378 0
-1097 -379 0
-1097 -381 0
-1097 -382 0
-1097 -396 578 0
-1097 -396 -473 0
-1097 -396 -497 0
-1097 -396 -521 0
-1097 -396 -374 -393 0
-1097 -397 579 0
-1097 -397 -474 0
-1097 -397 -498 0
-1097 -397 -522 0
-1097 -397 -374 -394 0
-1097 -398 580 0
-1097 -398 -475 0
-1097 -398 -499 0
-1097 -398 -523 0
-1097 -398 -374 -395 0
-1097 -399 0
-1098 408 0
-1098 560 0
-1098 -377 0
-1098 -378 0
-1098 -379 0
-1098 -380 0
-1098 -382 0
-1098 -396 578 0
-1098 -396 -477 0
-1098 -396 -501 0
-1098 -396 -525 0
-1098 -396 -375 -393 0
-1098 -397 579 0
-1098 -397 -478 0
-1098 -397 -502 0
-1098 -397 -526 0
-1098 -397 -375 -394 0
-1098 -398 580 0
-1098 -398 -479 0
-1098 -398 -503 0
-1098 -398 -527 0
-1098 -398 -375 -395 0
-1098 -399 0
-1099 408 0
-1099 561 0
-1099 -377 0
-1099 -378 0
-1099 -379 0
-1099 -380 0
-1099 -381 0
-1099 -396 578 0
-1099 -396 -481 0
-1099 -396 -505 0
-1099 -396 -529 0
-1099 -396 -376 -393 0
-1099 -397 579 0
-1099 -397 -482 0
-1099 -397 -506 0
-1099 -397 -530 0
-1099 -397 -376 -394 0
-1099 -398 580 0
-1099 -398 -483 0
-1099 -398 -507 0
-1099 -398 -531 0
-1099 -398 -376 -395 0
-1099 -399 0
-1100 408 0
-1100 556 0
-1100 -384 0
-1100 -385 0
-1100 -386 0
-1100 -387 0
-1100 -400 578 0
-1100 -400 -461 0
-1100 -400 -485 0
-1100 -400 -509 0
-1100 -400 -371 -393 0
-1100 -401 579 0
-1100 -401 -462 0
-1100 -401 -486 0
-1100 -401 -510 0
-1100 -401 -371 -394 0
-1100 -402 580 0
-1100 -402 -463 0
-1100 -402 -487 0
-1100 -402 -511 0
-1100 -402 -371 -395 0
-1100 -403 0
-1101 408 0
-1101 557 0
-1101 -385 0
-1101 -386 0
-1101 -387 0
-1101 -400 578 0
-1101 -400 -465 0
-1101 -400 -489 0
-1101 -400 -513 0
-1101 -400 -372 -393 0
-1101 -401 579 0
-1101 -401 -466 0
-1101 -401 -490 0
-1101 -401 -514 0
-1101 -401 -372 -394 0
-1101 -402 580 0
-1101 -402 -467 0
-1101 -402 -491 0
-1101 -402 -515 0
-1101 -402 -372 -395 0
-1101 -403 0
-1102 408 0
-1102 558 0
-1102 -383 0
-1102 -386 0
-1102 -387 0
-1102 -400 578 0
-1102 -400 -469 0
-1102 -400 -493 0
-1102 -400 -517 0
-1102 -400 -373 -393 0
-1102 -401 579 0
-1102 -401 -470 0
-1102 -401 -494 0
-1102 -401 -518 0
-1102 -401 -373 -394 0
-1102 -402 580 0
-1102 -402 -471 0
-1102 -402 -495 0
-1102 -402 -519 0
-1102 -402 -373 -395 0
-1102 -403 0
-1103 408 0
-1103 559 0
-1103 -383 0
-1103 -384 0
-1103 -387 0
-1103 -400 578 0
-1103 -400 -473 0
-1103 -400 -497 0
-1103 -400 -521 0
-1103 -400 -374 -393 0
-1103 -401 579 0
-1103 -401 -474 0
-1103 -401 -498 0
-1103 -401 -522 0
-1103 -401 -374 -394 0
-1103 -402 580 0
-1103 -402 -475 0
-1103 -402 -499 0
-1103 -402 -523 0
-1103 -402 -374 -395 0
-1103 -403 0
-1104 408 0
-1104 560 0
-1104 -383 0
-1104 -384 0
-1104 -385 0
-1104 -400 578 0
-1104 -400 -477 0
-1104 -400 -501 0
-1104 -400 -525 0
-1104 -400 -375 -393 0
-1104 -401 579 0
-1104 -401 -478 0
-1104 -401 -502 0
-1104 -401 -526 0
-1104 -401 -375 -394 0
-1104 -402 580 0
-1104 -402 -479 0
-1104 -402 -503 0
-1104 -402 -527 0
-1104 -402 -375 -395 0
-1104 -403 0
-1105 408 0
-1105 561 0
-1105 -383 0
-1105 -384 0
-1105 -385 0
-1105 -386 0
-1105 -400 578 0
-1105 -400 -481 0
-1105 -400 -505 0
-1105 -400 -529 0
-1105 -400 -376 -393 0
-1105 -401 579 0
-1105 -401 -482 0
-1105 -401 -506 0
-1105 -401 -530 0
-1105 -401 -376 -394 0
-1105 -402 580 0
-1105 -402 -483 0
-1105 -402 -507 0
-1105 -402 -531 0
-1105 -402 -376 -395 0
-1105 -403 0
-1106 408 0
-1106 556 0
-1106 -389 0
-1106 -390 0
-1106 -391 0
-1106 -404 578 0
-1106 -404 -461 0
-1106 -404 -485 0
-1106 -404 -509 0
-1106 -404 -371 -393 0
-1106 -405 579 0
-1106 -405 -462 0
-1106 -405 -486 0
-1106 -405 -510 0
-1106 -405 -371 -394 0
-1106 -406 580 0
-1106 -406 -463 0
-1106 -406 -487 0
-1106 -406 -511 0
-1106 -406 -371 -395 0
-1106 -407 0
-1107 408 0
-1107 557 0
-1107 -390 0
-1107 -391 0
-1107 -404 578 0
-1107 -404 -465 0
-1107 -404 -489 0
-1107 -404 -513 0
-1107 -404 -372 -393 0
-1107 -405 579 0
-1107 -405 -466 0
-1107 -405 -490 0
-1107 -405 -514 0
-1107 -405 -372 -394 0
-1107 -406 580 0
-1107 -406 -467 0
-1107 -406 -491 0
-1107 -406 -515 0
-1107 -406 -372 -395 0
-1107 -407 0
-1108 408 0
-1108 558 0
-1108 -391 0
-1108 -404 578 0
-1108 -404 -469 0
-1108 -404 -493 0
-1108 -404 -517 0
-1108 -404 -373 -393 0
-1108 -405 579 0
-1108 -405 -470 0
-1108 -405 -494 0
-1108 -405 -518 0
-1108 -405 -373 -394 0
-1108 -406 580 0
-1108 -406 -471 0
-1108 -406 -495 0
-1108 -406 -519 0
-1108 -406 -373 -395 0
-1108 -407 0
-1109 408 0
-1109 559 0
-1109 -388 0
-1109 -404 578 0
-1109 -404 -473 0
-1109 -404 -497 0
-1109 -404 -521 0
-1109 -404 -374 -393 0
-1109 -405 579 0
-1109 -405 -474 0
-1109 -405 -498 0
-1109 -405 -522 0
-1109 -405 -374 -394 0
-1109 -406 580 0
-1109 -406 -475 0
-1109 -406 -499 0
-1109 -406 -523 0
-1109 -406 -374 -395 0
-1109 -407 0
-1110 408 0
-1110 560 0
-1110 -388 0
-1110 -389 0
-1110 -404 578 0
-1110 -404 -477 0
-1110 -404 -501 0
-1110 -404 -525 0
-1110 -404 -375 -393 0
-1110 -405 579 0
-1110 -405 -478 0
-1110 -405 -502 0
-1110 -405 -526 0
-1110 -405 -375 -394 0
-1110 -406 580 0
-1110 -406 -479 0
-1110 -406 -503 0
-1110 -406 -527 0
-1110 -406 -375 -395 0
-1110 -407 0
-1111 408 0
-1111 561 0
-1111 -388 0
-1111 -389 0
-1111 -390 0
-1111 -404 578 0
-1111 -404 -481 0
-1111 -404 -505 0
-1111 -404 -529 0
-1111 -404 -376 -393 0
-1111 -405 579 0
-1111 -405 -482 0
-1111 -405 -506 0
-1111 -405 -530 0
-1111 -405 -376 -394 0
-1111 -406 580 0
-1111 -406 -483 0
-1111 -406 -507 0
-1111 -406 -531 0
-1111 -406 -376 -395 0
-1111 -407 0
-1112 408 0
-1112 556 0
-1112 577 0
-1112 -460 0
-1112 -484 0
-1112 -508 0
-1112 -371 -392 0
-1113 408 0
-1113 557 0
-1113 577 0
-1113 -464 0
-1113 -488 0
-1113 -512 0
-1113 -372 -392 0
-1114 408 0
-1114 558 0
-1114 577 0
-1114 -468 0
-1114 -492 0
-1114 -516 0
-1114 -373 -392 0
-1115 408 0
-1115 559 0
-1115 577 0
-1115 -472 0
-1115 -496 0
-1115 -520 0
-1115 -374 -392 0
-1116 408 0
-1116 560 0
-1116 577 0
-1116 -476 0
-1116 -500 0
-1116 -524 0
-1116 -375 -392 0
-1117 408 0
-1117 561 0
-1117 577 0
-1117 -480 0
-1117 -504 0
-1117 -528 0
-1117 -376 -392 0
-1118 409 0
-1118 562 0
-1118 -372 0
-1118 -373 0
-1118 -374 0
-1118 -375 0
-1118 -376 0
-1118 -392 582 0
-1118 -392 -437 0
-1118 -392 -485 0
-1118 -392 -509 0
-1118 -392 -377 -397 0
-1118 -393 583 0
-1118 -393 -438 0
-1118 -393 -486 0
-1118 -393 -510 0
-1118 -393 -377 -398 0
-1118 -394 584 0
-1118 -394 -439 0
-1118 -394 -487 0
-1118 -394 -511 0
-1118 -394 -377 -399 0
-1118 -395 0
-1119 409 0
-1119 563 0
-1119 -371 0
-1119 -373 0
-1119 -374 0
-1119 -375 0
-1119 -376 0
-1119 -392 582 0
-1119 -392 -441 0
-1119 -392 -489 0
-1119 -392 -513 0
-1119 -392 -378 -397 0
-1119 -393 583 0
-1119 -393 -442 0
-1119 -393 -490 0
-1119 -393 -514 0
-1119 -393 -378 -398 0
-1119 -394 584 0
-1119 -394 -443 0
-1119 -394 -491 0
-1119 -394 -515 0
-1119 -394 -378 -399 0
-1119 -395 0
-1120 409 0
-1120 564 0
-1120 -371 0
-1120 -372 0
-1120 -374 0
-1120 -375 0
-1120 -376 0
-1120 -392 582 0
-1120 -392 -445 0
-1120 -392 -493 0
-1120 -392 -517 0
-1120 -392 -379 -397 0
-1120 -393 583 0
-1120 -393 -446 0
-1120 -393 -494 0
-1120 -393 -518 0
-1120 -393 -379 -398 0
-1120 -394 584 0
-1120 -394 -447 0
-1120 -394 -495 0
-1120 -394 -519 0
-1120 -394 -379 -399 0
-1120 -395 0
-1121 409 0
-1121 565 0
-1121 -371 0
-1121 -372 0
-1121 -373 0
-1121 -375 0
-1121 -376 0
-1121 -392 582 0
-1121 -392 -449 0
-1121 -392 -497 0
-1121 -392 -521 0
-1121 -392 -380 -397 0
-1121 -393 583 0
-1121 -393 -450 0
-1121 -393 -498 0
-1121 -393 -522 0
-1121 -393 -380 -398 0
-1121 -394 584 0
-1121 -394 -451 0
-1121 -394 -499 0
-1121 -394 -523 0
-1121 -394 -380 -399 0
-1121 -395 0
-1122 409 0
-1122 566 0
-1122 -371 0
-1122 -372 0
-1122 -373 0
-1122 -374 0
-1122 -376 0
-1122 -392 582 0
-1122 -392 -453 0
-1122 -392 -501 0
-1122 -392 -525 0
-1122 -392 -381 -397 0
-1122 -393 583 0
-1122 -393 -454 0
-1122 -393 -502 0
-1122 -393 -526 0
-1122 -393 -381 -398 0
-1122 -394 584 0
-1122 -394 -455 0
-1122 -394 -503 0
-1122 -394 -527 0
-1122 -394 -381 -399 0
-1122 -395 0
-1123 409 0
-1123 567 0
-1123 -371 0
-1123 -372 0
-1123 -373 0
-1123 -374 0
-1123 -375 0
-1123 -392 582 0
-1123 -392 -457 0
-1123 -392 -505 0
-1123 -392 -529 0
-1123 -392 -382 -397 0
-1123 -393 583 0
-1123 -393 -458 0
-1123 -393 -506 0
-1123 -393 -530 0
-1123 -393 -382 -398 0
-1123 -394 584 0
-1123 -394 -459 0
-1123 -394 -507 0
-1123 -394 -531 0
-1123 -394 -382 -399 0
-1123 -395 0
-1124 409 0
-1124 562 0
-1124 -384 0
-1124 -385 0
-1124 -386 0
-1124 -387 0
-1124 -400 582 0
-1124 -400 -437 0
-1124 -400 -485 0
-1124 -400 -509 0
-1124 -400 -377 -397 0
-1124 -401 583 0
-1124 -401 -438 0
-1124 -401 -486 0
-1124 -401 -510 0
-1124 -401 -377 -398 0
-1124 -402 584 0
-1124 -402 -439 0
-1124 -402 -487 0
-1124 -402 -511 0
-1124 -402 -377 -399 0
-1124 -403 0
-1125 409 0
-1125 563 0
-1125 -385 0
-1125 -386 0
-1125 -387 0
-1125 -400 582 0
-1125 -400 -441 0
-1125 -400 -489 0
-1125 -400 -513 0
-1125 -400 -378 -397 0
-1125 -401 583 0
-1125 -401 -442 0
-1125 -401 -490 0
-1125 -401 -514 0
-1125 -401 -378 -398 0
-1125 -402 584 0
-1125 -402 -443 0
-1125 -402 -491 0
-1125 -402 -515 0
-1125 -402 -378 -399 0
-1125 -403 0
-1126 409 0
-1126 564 0
-1126 -383 0
-1126 -386 0
-1126 -387 0
-1126 -400 582 0
-1126 -400 -445 0
-1126 -400 -493 0
-1126 -400 -517 0
-1126 -400 -379 -397 0
-1126 -401 583 0
-1126 -401 -446 0
-1126 -401 -494 0
-1126 -401 -518 0
-1126 -401 -379 -398 0
-1126 -402 584 0
-1126 -402 -447 0
-1126 -402 -495 0
-1126 -402 -519 0
-1126 -402 -379 -399 0
-1126 -403 0
-1127 409 0
-1127 565 0
-1127 -383 0
-1127 -384 0
-1127 -387 0
-1127 -400 582 0
-1127 -400 -449 0
-1127 -400 -497 0
-1127 -400 -521 0
-1127 -400 -380 -397 0
-1127 -401 583 0
-1127 -401 -450 0
-1127 -401 -498 0
-1127 -401 -522 0
-1127 -401 -380 -398 0
-1127 -402 584 0
-1127 -402 -451 0
-1127 -402 -499 0
-1127 -402 -523 0
-1127 -402 -380 -399 0
-1127 -403 0
-1128 409 0
-1128 566 0
-1128 -383 0
-1128 -384 0
-1128 -385 0
-1128 -400 582 0
-1128 -400 -453 0
-1128 -400 -501 0
-1128 -400 -525 0
-1128 -400 -381 -397 0
-1128 -401 583 0
-1128 -401 -454 0
-1128 -401 -502 0
-1128 -401 -526 0
-1128 -401 -381 -398 0
-1128 -402 584 0
-1128 -402 -455 0
-1128 -402 -503 0
-1128 -402 -527 0
-1128 -402 -381 -399 0
-1128 -403 0
-1129 409 0
-1129 567 0
-1129 -383 0
-1129 -384 0
-1129 -385 0
-1129 -386 0
-1129 -400 582 0
-1129 -400 -457 0
-1129 -400 -505 0
-1129 -400 -529 0
-1129 -400 -382 -397 0
-1129 -401 583 0
-1129 -401 -458 0
-1129 -401 -506 0
-1129 -401 -530 0
-1129 -401 -382 -398 0
-1129 -402 584 0
-1129 -402 -459 0
-1129 -402 -507 0
-1129 -402 -531 0
-1129 -402 -382 -399 0
-1129 -403 0
-1130 409 0
-1130 562 0
-1130 -389 0
-1130 -390 0
-1130 -391 0
-1130 -404 582 0
-1130 -404 -437 0
-1130 -404 -485 0
-1130 -404 -509 0
-1130 -404 -377 -397 0
-1130 -405 583 0
-1130 -405 -438 0
-1130 -405 -486 0
-1130 -405 -510 0
-1130 -405 -377 -398 0
-1130 -406 584 0
-1130 -406 -439 0
-1130 -406 -487 0
-1130 -406 -511 0
-1130 -406 -377 -399 0
-1130 -407 0
-1131 409 0
-1131 563 0
-1131 -390 0
-1131 -391 0
-1131 -404 582 0
-1131 -404 -441 0
-1131 -404 -489 0
-1131 -404 -513 0
-1131 -404 -378 -397 0
-1131 -405 583 0
-1131 -405 -442 0
-1131 -405 -490 0
-1131 -405 -514 0
-1131 -405 -378 -398 0
-1131 -406 584 0
-1131 -406 -443 0
-1131 -406 -491 0
-1131 -406 -515 0
-1131 -406 -378 -399 0
-1131 -407 0
-1132 409 0
-1132 564 0
-1132 -391 0
-1132 -404 582 0
-1132 -404 -445 0
-1132 -404 -493 0
-1132 -404 -517 0
-1132 -404 -379 -397 0
-1132 -405 583 0
-1132 -405 -446 0
-1132 -405 -494 0
-1132 -405 -518 0
-1132 -405 -379 -398 0
-1132 -406 584 0
-1132 -406 -447 0
-1132 -406 -495 0
-1132 -406 -519 0
-1132 -406 -379 -399 0
-1132 -407 0
-1133 409 0
-1133 565 0
-1133 -388 0
-1133 -404 582 0
-1133 -404 -449 0
-1133 -404 -497 0
-1133 -404 -521 0
-1133 -404 -380 -397 0
-1133 -405 583 0
-1133 -405 -450 0
-1133 -405 -498 0
-1133 -405 -522 0
-1133 -405 -380 -398 0
-1133 -406 584 0
-1133 -406 -451 0
-1133 -406 -499 0
-1133 -406 -523 0
-1133 -406 -380 -399 0
-1133 -407 0
-1134 409 0
-1134 566 0
-1134 -388 0
-1134 -389 0
-1134 -404 582 0
-1134 -404 -453 0
-1134 -404 -501 0
-1134 -404 -525 0
-1134 -404 -381 -397 0
-1134 -405 583 0
-1134 -405 -454 0
-1134 -405 -502 0
-1134 -405 -526 0
-1134 -405 -381 -398 0
-1134 -406 584 0
-1134 -406 -455 0
-1134 -406 -503 0
-1134 -406 -527 0
-1134 -406 -381 -399 0
-1134 -407 0
-1135 409 0
-1135 567 0
-1135 -388 0
-1135 -389 0
-1135 -390 0
-1135 -404 582 0
-1135 -404 -457 0
-1135 -404 -505 0
-1135 -404 -529 0
-1135 -404 -382 -397 0
-1135 -405 583 0
-1135 -405 -458 0
-1135 -405 -506 0
-1135 -405 -530 0
-1135 -405 -382 -398 0
-1135 -406 584 0
-1135 -406 -459 0
-1135 -406 -507 0
-1135 -406 -531 0
-1135 -406 -382 -399 0
-1135 -407 0
-1136 409 0
-1136 562 0
-1136 581 0
-1136 -436 0
-1136 -484 0
-1136 -508 0
-1136 -377 -396 0
-1137 409 0
-1137 563 0
-1137 581 0
-1137 -440 0
-1137 -488 0
-1137 -512 0
-1137 -378 -396 0
-1138 409 0
-1138 564 0
-1138 581 0
-1138 -444 0
-1138 -492 0
-1138 -516 0
-1138 -379 -396 0
-1139 409 0
-1139 565 0
-1139 581 0
-1139 -448 0
-1139 -496 0
-1139 -520 0
-1139 -380 -396 0
-1140 409 0
-1140 566 0
-1140 581 0
-1140 -452 0
-1140 -500 0
-1140 -524 0
-1140 -381 -396 0
-1141 409 0
-1141 567 0
-1141 581 0
-1141 -456 0
-1141 -504 0
-1141 -528 0
-1141 -382 -396 0
-1142 410 0
-1142 568 0
-1142 -373 0
-1142 -374 0
-1142 -375 0
-1142 -376 0
-1142 -392 586 0
-1142 -392 -437 0
-1142 -392 -441 0
-1142 -392 -461 0
-1142 -392 -465 0
-1142 -392 -509 0
-1142 -392 -513 0
-1142 -392 -383 -401 0
-1142 -393 587 0
-1142 -393 -438 0
-1142 -393 -442 0
-1142 -393 -462 0
-1142 -393 -466 0
-1142 -393 -510 0
-1142 -393 -514 0
-1142 -393 -383 -402 0
-1142 -394 588 0
-1142 -394 -439 0
-1142 -394 -443 0
-1142 -394 -463 0
-1142 -394 -467 0
-1142 -394 -511 0
-1142 -394 -515 0
-1142 -394 -383 -403 0
-1142 -395 0
-1143 410 0
-1143 569 0
-1143 -371 0
-1143 -374 0
-1143 -375 0
-1143 -376 0
-1143 -392 586 0
-1143 -392 -441 0
-1143 -392 -445 0
-1143 -392 -465 0
-1143 -392 -469 0
-1143 -392 -513 0
-1143 -392 -517 0
-1143 -392 -384 -401 0
-1143 -393 587 0
-1143 -393 -442 0
-1143 -393 -446 0
-1143 -393 -466 0
-1143 -393 -470 0
-1143 -393 -514 0
-1143 -393 -518 0
-1143 -393 -384 -402 0
-1143 -394 588 0
-1143 -394 -443 0
-1143 -394 -447 0
-1143 -394 -467 0
-1143 -394 -471 0
-1143 -394 -515 0
-1143 -394 -519 0
-1143 -394 -384 -403 0
-1143 -395 0
-1144 410 0
-1144 570 0
-1144 -371 0
-1144 -372 0
-1144 -375 0
-1144 -376 0
-1144 -392 586 0
-1144 -392 -445 0
-1144 -392 -449 0
-1144 -392 -469 0
-1144 -392 -473 0
-1144 -392 -517 0
-1144 -392 -521 0
-1144 -392 -385 -401 0
-1144 -393 587 0
-1144 -393 -446 0
-1144 -393 -450 0
-1144 -393 -470 0
-1144 -393 -474 0
-1144 -393 -518 0
-1144 -393 -522 0
-1144 -393 -385 -402 0
-1144 -394 588 0
-1144 -394 -447 0
-1144 -394 -451 0
-1144 -394 -471 0
-1144 -394 -475 0
-1144 -394 -519 0
-1144 -394 -523 0
-1144 -394 -385 -403 0
-1144 -395 0
-1145 410 0
-1145 571 0
-1145 -371 0
-1145 -372 0
-1145 -373 0
-1145 -376 0
-1145 -392 586 0
-1145 -392 -449 0
-1145 -392 -453 0
-1145 -392 -473 0
-1145 -392 -477 0
-1145 -392 -521 0
-1145 -392 -525 0
-1145 -392 -386 -401 0
-1145 -393 587 0
-1145 -393 -450 0
-1145 -393 -454 0
-1145 -393 -474 0
-1145 -393 -478 0
-1145 -393 -522 0
-1145 -393 -526 0
-1145 -393 -386 -402 0
-1145 -394 588 0
-1145 -394 -451 0
-1145 -394 -455 0
-1145 -394 -475 0
-1145 -394 -479 0
-1145 -394 -523 0
-1145 -394 -527 0
-1145 -394 -386 -403 0
-1145 -395 0
-1146 410 0
-1146 572 0
-1146 -371 0
-1146 -372 0
-1146 -373 0
-1146 -374 0
-1146 -392 586 0
-1146 -392 -453 0
-1146 -392 -457 0
-1146 -392 -477 0
-1146 -392 -481 0
-1146 -392 -525 0
-1146 -392 -529 0
-1146 -392 -387 -401 0
-1146 -393 587 0
-1146 -393 -454 0
-1146 -393 -458 0
-1146 -393 -478 0
-1146 -393 -482 0
-1146 -393 -526 0
-1146 -393 -530 0
-1146 -393 -387 -402 0
-1146 -394 588 0
-1146 -394 -455 0
-1146 -394 -459 0
-1146 -394 -479 0
-1146 -394 -483 0
-1146 -394 -527 0
-1146 -394 -531 0
-1146 -394 -387 -403 0
-1146 -395 0
-1147 410 0
-1147 568 0
-1147 -379 0
-1147 -380 0
-1147 -381 0
-1147 -382 0
-1147 -396 586 0
-1147 -396 -437 0
-1147 -396 -441 0
-1147 -396 -461 0
-1147 -396 -465 0
-1147 -396 -509 0
-1147 -396 -513 0
-1147 -396 -383 -401 0
-1147 -397 587 0
-1147 -397 -438 0
-1147 -397 -442 0
-1147 -397 -462 0
-1147 -397 -466 0
-1147 -397 -510 0
-1147 -397 -514 0
-1147 -397 -383 -402 0
-1147 -398 588 0
-1147 -398 -439 0
-1147 -398 -443 0
-1147 -398 -463 0
-1147 -398 -467 0
-1147 -398 -511 0
-1147 -398 -515 0
-1147 -398 -383 -403 0
-1147 -399 0
-1148 410 0
-1148 569 0
-1148 -377 0
-1148 -380 0
-1148 -381 0
-1148 -382 0
-1148 -396 586 0
-1148 -396 -441 0
-1148 -396 -445 0
-1148 -396 -465 0
-1148 -396 -469 0
-1148 -396 -513 0
-1148 -396 -517 0
-1148 -396 -384 -401 0
-1148 -397 587 0
-1148 -397 -442 0
-1148 -397 -446 0
-1148 -397 -466 0
-1148 -397 -470 0
-1148 -397 -514 0
-1148 -397 -518 0
-1148 -397 -384 -402 0
-1148 -398 588 0
-1148 -398 -443 0
-1148 -398 -447 0
-1148 -398 -467 0
-1148 -398 -471 0
-1148 -398 -515 0
-1148 -398 -519 0
-1148 -398 -384 -403 0
-1148 -399 0
-1149 410 0
-1149 570 0
-1149 -377 0
-1149 -378 0
-1149 -381 0
-1149 -382 0
-1149 -396 586 0
-1149 -396 -445 0
-1149 -396 -449 0
-1149 -396 -469 0
-1149 -396 -473 0
-1149 -396 -517 0
-1149 -396 -521 0
-1149 -396 -385 -401 0
-1149 -397 587 0
-1149 -397 -446 0
-1149 -397 -450 0
-1149 -397 -470 0
-1149 -397 -474 0
-1149 -397 -518 0
-1149 -397 -522 0
-1149 -397 -385 -402 0
-1149 -398 588 0
-1149 -398 -447 0
-1149 -398 -451 0
-1149 -398 -471 0
-1149 -398 -475 0
-1149 -398 -519 0
-1149 -398 -523 0
-1149 -398 -385 -403 0
-1149 -399 0
-1150 410 0
-1150 571 0
-1150 -377 0
-1150 -378 0
-1150 -379 0
-1150 -382 0
-1150 -396 586 0
-1150 -396 -449 0
-1150 -396 -453 0
-1150 -396 -473 0
-1150 -396 -477 0
-1150 -396 -521 0
-1150 -396 -525 0
-1150 -396 -386 -401 0
-1150 -397 587 0
-1150 -397 -450 0
-1150 -397 -454 0
-1150 -397 -474 0
-1150 -397 -478 0
-1150 -397 -522 0
-1150 -397 -526 0
-1150 -397 -386 -402 0
-1150 -398 588 0
-1150 -398 -451 0
-1150 -398 -455 0
-1150 -398 -475 0
-1150 -398 -479 0
-1150 -398 -523 0
-1150 -398 -527 0
-1150 -398 -386 -403 0
-1150 -399 0
-1151 410 0
-1151 572 0
-1151 -377 0
-1151 -378 0
-1151 -379 0
-1151 -380 0
-1151 -396 586 0
-1151 -396 -453 0
-1151 -396 -457 0
-1151 -396 -477 0
-1151 -396 -481 0
-1151 -396 -525 0
-1151 -396 -529 0
-1151 -396 -387 -401 0
-1151 -397 587 0
-1151 -397 -454 0
-1151 -397 -458 0
-1151 -397 -478 0
-1151 -397 -482 0
-1151 -397 -526 0
-1151 -397 -530 0
-1151 -397 -387 -402 0
-1151 -398 588 0
-1151 -398 -455 0
-1151 -398 -459 0
-1151 -398 -479 0
-1151 -398 -483 0
-1151 -398 -527 0
-1151 -398 -531 0
-1151 -398 -387 -403 0
-1151 -399 0
-1152 410 0
-1152 568 0
-1152 -390 0
-1152 -391 0
-1152 -404 586 0
-1152 -404 -437 0
-1152 -404 -441 0
-1152 -404 -461 0
-1152 -404 -465 0
-1152 -404 -509 0
-1152 -404 -513 0
-1152 -404 -383 -401 0
-1152 -405 587 0
-1152 -405 -438 0
-1152 -405 -442 0
-1152 -405 -462 0
-1152 -405 -466 0
-1152 -405 -510 0
-1152 -405 -514 0
-1152 -405 -383 -402 0
-1152 -406 588 0
-1152 -406 -439 0
-1152 -406 -443 0
-1152 -406 -463 0
-1152 -406 -467 0
-1152 -406 -511 0
-1152 -406 -515 0
-1152 -406 -383 -403 0
-1152 -407 0
-1153 410 0
-1153 569 0
-1153 -391 0
-1153 -404 586 0
-1153 -404 -441 0
-1153 -404 -445 0
-1153 -404 -465 0
-1153 -404 -469 0
-1153 -404 -513 0
-1153 -404 -517 0
-1153 -404 -384 -401 0
-1153 -405 587 0
-1153 -405 -442 0
-1153 -405 -446 0
-1153 -405 -466 0
-1153 -405 -470 0
-1153 -405 -514 0
-1153 -405 -518 0
-1153 -405 -384 -402 0
-1153 -406 588 0
-1153 -406 -443 0
-1153 -406 -447 0
-1153 -406 -467 0
-1153 -406 -471 0
-1153 -406 -515 0
-1153 -406 -519 0
-1153 -406 -384 -403 0
-1153 -407 0
-1154 410 0
-1154 570 0
-1154 -404 586 0
-1154 -404 -445 0
-1154 -404 -449 0
-1154 -404 -469 0
-1154 -404 -473 0
-1154 -404 -517 0
-1154 -404 -521 0
-1154 -404 -385 -401 0
-1154 -405 587 0
-1154 -405 -446 0
-1154 -405 -450 0
-1154 -405 -470 0
-1154 -405 -474 0
-1154 -405 -518 0
-1154 -405 -522 0
-1154 -405 -385 -402 0
-1154 -406 588 0
-1154 -406 -447 0
-1154 -406 -451 0
-1154 -406 -471 0
-1154 -406 -475 0
-1154 -406 -519 0
-1154 -406 -523 0
-1154 -406 -385 -403 0
-1154 -407 0
-1155 410 0
-1155 571 0
-1155 -388 0
-1155 -404 586 0
-1155 -404 -449 0
-1155 -404 -453 0
-1155 -404 -473 0
-1155 -404 -477 0
-1155 -404 -521 0
-1155 -404 -525 0
-1155 -404 -386 -401 0
-1155 -405 587 0
-1155 -405 -450 0
-1155 -405 -454 0
-1155 -405 -474 0
-1155 -405 -478 0
-1155 -405 -522 0
-1155 -405 -526 0
-1155 -405 -386 -402 0
-1155 -406 588 0
-1155 -406 -451 0
-1155 -406 -455 0
-1155 -406 -475 0
-1155 -406 -479 0
-1155 -406 -523 0
-1155 -406 -527 0
-1155 -406 -386 -403 0
-1155 -407 0
-1156 410 0
-1156 572 0
-1156 -388 0
-1156 -389 0
-1156 -404 586 0
-1156 -404 -453 0
-1156 -404 -457 0
-1156 -404 -477 0
-1156 -404 -481 0
-1156 -404 -525 0
-1156 -404 -529 0
-1156 -404 -387 -401 0
-1156 -405 587 0
-1156 -405 -454 0
-1156 -405 -458 0
-1156 -405 -478 0
-1156 -405 -482 0
-1156 -405 -526 0
-1156 -405 -530 0
-1156 -405 -387 -402 0
-1156 -406 588 0
-1156 -406 -455 0
-1156 -406 -459 0
-1156 -406 -479 0
-1156 -406 -483 0
-1156 -406 -527 0
-1156 -406 -531 0
-1156 -406 -387 -403 0
-1156 -407 0
-1157 410 0
-1157 568 0
-1157 585 0
-1157 -436 0
-1157 -440 0
-1157 -460 0
-1157 -464 0
-1157 -508 0
-1157 -512 0
-1157 -383 -400 0
-1158 410 0
-1158 569 0
-1158 585 0
-1158 -440 0
-1158 -444 0
-1158 -464 0
-1158 -468 0
-1158 -512 0
-1158 -516 0
-1158 -384 -400 0
-1159 410 0
-1159 570 0
-1159 585 0
-1159 -444 0
-1159 -448 0
-1159 -468 0
-1159 -472 0
-1159 -516 0
-1159 -520 0
-1159 -385 -400 0
-1160 410 0
-1160 571 0
-1160 585 0
-1160 -448 0
-1160 -452 0
-1160 -472 0
-1160 -476 0
-1160 -520 0
-1160 -524 0
-1160 -386 -400 0
-1161 410 0
-1161 572 0
-1161 585 0
-1161 -452 0
-1161 -456 0
-1161 -476 0
-1161 -480 0
-1161 -524 0
-1161 -528 0
-1161 -387 -400 0
-1162 411 0
-1162 573 0
-1162 -374 0
-1162 -375 0
-1162 -376 0
-1162 -392 590 0
-1162 -392 -437 0
-1162 -392 -441 0
-1162 -392 -445 0
-1162 -392 -461 0
-1162 -392 -465 0
-1162 -392 -469 0
-1162 -392 -485 0
-1162 -392 -489 0
-1162 -392 -493 0
-1162 -392 -388 -405 0
-1162 -393 591 0
-1162 -393 -438 0
-1162 -393 -442 0
-1162 -393 -446 0
-1162 -393 -462 0
-1162 -393 -466 0
-1162 -393 -470 0
-1162 -393 -486 0
-1162 -393 -490 0
-1162 -393 -494 0
-1162 -393 -388 -406 0
-1162 -394 592 0
-1162 -394 -439 0
-1162 -394 -443 0
-1162 -394 -447 0
-1162 -394 -463 0
-1162 -394 -467 0
-1162 -394 -471 0
-1162 -394 -487 0
-1162 -394 -491 0
-1162 -394 -495 0
-1162 -394 -388 -407 0
-1162 -395 0
-1163 411 0
-1163 574 0
-1163 -371 0
-1163 -375 0
-1163 -376 0
-1163 -392 590 0
-1163 -392 -441 0
-1163 -392 -445 0
-1163 -392 -449 0
-1163 -392 -465 0
-1163 -392 -469 0
-1163 -392 -473 0
-1163 -392 -489 0
-1163 -392 -493 0
-1163 -392 -497 0
-1163 -392 -389 -405 0
-1163 -393 591 0
-1163 -393 -442 0
-1163 -393 -446 0
-1163 -393 -450 0
-1163 -393 -466 0
-1163 -393 -470 0
-1163 -393 -474 0
-1163 -393 -490 0
-1163 -393 -494 0
-1163 -393 -498 0
-1163 -393 -389 -406 0
-1163 -394 592 0
-1163 -394 -443 0
-1163 -394 -447 0
-1163 -394 -451 0
-1163 -394 -467 0
-1163 -394 -471 0
-1163 -394 -475 0
-1163 -394 -491 0
-1163 -394 -495 0
-1163 -394 -499 0
-1163 -394 -389 -407 0
-1163 -395 0
-1164 411 0
-1164 575 0
-1164 -371 0
-1164 -372 0
-1164 -376 0
-1164 -392 590 0
-1164 -392 -445 0
-1164 -392 -449 0
-1164 -392 -453 0
-1164 -392 -469 0
-1164 -392 -473 0
-1164 -392 -477 0
-1164 -392 -493 0
-1164 -392 -497 0
-1164 -392 -501 0
-1164 -392 -390 -405 0
-1164 -393 591 0
-1164 -393 -446 0
-1164 -393 -450 0
-1164 -393 -454 0
-1164 -393 -470 0
-1164 -393 -474 0
-1164 -393 -478 0
-1164 -393 -494 0
-1164 -393 -498 0
-1164 -393 -502 0
-1164 -393 -390 -406 0
-1164 -394 592 0
-1164 -394 -447 0
-1164 -394 -451 0
-1164 -394 -455 0
-1164 -394 -471 0
-1164 -394 -475 0
-1164 -394 -479 0
-1164 -394 -495 0
-1164 -394 -499 0
-1164 -394 -503 0
-1164 -394 -390 -407 0
-1164 -395 0
-1165 411 0
-1165 576 0
-1165 -371 0
-1165 -372 0
-1165 -373 0
-1165 -392 590 0
-1165 -392 -449 0
-1165 -392 -453 0
-1165 -392 -457 0
-1165 -392 -473 0
-1165 -392 -477 0
-1165 -392 -481 0
-1165 -392 -497 0
-1165 -392 -501 0
-1165 -392 -505 0
-1165 -392 -391 -405 0
-1165 -393 591 0
-1165 -393 -450 0
-1165 -393 -454 0
-1165 -393 -458 0
-1165 -393 -474 0
-1165 -393 -478 0
-1165 -393 -482 0
-1165 -393 -498 0
-1165 -393 -502 0
-1165 -393 -506 0
-1165 -393 -391 -406 0
-1165 -394 592 0
-1165 -394 -451 0
-1165 -394 -455 0
-1165 -394 -459 0
-1165 -394 -475 0
-1165 -394 -479 0
-1165 -394 -483 0
-1165 -394 -499 0
-1165 -394 -503 0
-1165 -394 -507 0
-1165 -394 -391 -407 0
-1165 -395 0
-1166 411 0
-1166 573 0
-1166 -380 0
-1166 -381 0
-1166 -382 0
-1166 -396 590 0
-1166 -396 -437 0
-1166 -396 -441 0
-1166 -396 -445 0
-1166 -396 -461 0
-1166 -396 -465 0
-1166 -396 -469 0
-1166 -396 -485 0
-1166 -396 -489 0
-1166 -396 -493 0
-1166 -396 -388 -405 0
-1166 -397 591 0
-1166 -397 -438 0
-1166 -397 -442 0
-1166 -397 -446 0
-1166 -397 -462 0
-1166 -397 -466 0
-1166 -397 -470 0
-1166 -397 -486 0
-1166 -397 -490 0
-1166 -397 -494 0
-1166 -397 -388 -406 0
-1166 -398 592 0
-1166 -398 -439 0
-1166 -398 -443 0
-1166 -398 -447 0
-1166 -398 -463 0
-1166 -398 -467 0
-1166 -398 -471 0
-1166 -398 -487 0
-1166 -398 -491 0
-1166 -398 -495 0
-1166 -398 -388 -407 0
-1166 -399 0
-1167 411 0
-1167 574 0
-1167 -377 0
-1167 -381 0
-1167 -382 0
-1167 -396 590 0
-1167 -396 -441 0
-1167 -396 -445 0
-1167 -396 -449 0
-1167 -396 -465 0
-1167 -396 -469 0
-1167 -396 -473 0
-1167 -396 -489 0
-1167 -396 -493 0
-1167 -396 -497 0
-1167 -396 -389 -405 0
-1167 -397 591 0
-1167 -397 -442 0
-1167 -397 -446 0
-1167 -397 -450 0
-1167 -397 -466 0
-1167 -397 -470 0
-1167 -397 -474 0
-1167 -397 -490 0
-1167 -397 -494 0
-1167 -397 -498 0
-1167 -397 -389 -406 0
-1167 -398 592 0
-1167 -398 -443 0
-1167 -398 -447 0
-1167 -398 -451 0
-1167 -398 -467 0
-1167 -398 -471 0
-1167 -398 -475 0
-1167 -398 -491 0
-1167 -398 -495 0
-1167 -398 -499 0
-1167 -398 -389 -407 0
-1167 -399 0
-1168 411 0
-1168 575 0
-1168 -377 0
-1168 -378 0
-1168 -382 0
-1168 -396 590 0
-1168 -396 -445 0
-1168 -396 -449 0
-1168 -396 -453 0
-1168 -396 -469 0
-1168 -396 -473 0
-1168 -396 -477 0
-1168 -396 -493 0
-1168 -396 -497 0
-1168 -396 -501 0
-1168 -396 -390 -405 0
-1168 -397 591 0
-1168 -397 -446 0
-1168 -397 -450 0
-1168 -397 -454 0
-1168 -397 -470 0
-1168 -397 -474 0
-1168 -397 -478 0
-1168 -397 -494 0
-1168 -397 -498 0
-1168 -397 -502 0
-1168 -397 -390 -406 0
-1168 -398 592 0
-1168 -398 -447 0
-1168 -398 -451 0
-1168 -398 -455 0
-1168 -398 -471 0
-1168 -398 -475 0
-1168 -398 -479 0
-1168 -398 -495 0
-1168 -398 -499 0
-1168 -398 -503 0
-1168 -398 -390 -407 0
-1168 -399 0
-1169 411 0
-1169 576 0
-1169 -377 0
-1169 -378 0
-1169 -379 0
-1169 -396 590 0
-1169 -396 -449 0
-1169 -396 -453 0
-1169 -396 -457 0
-1169 -396 -473 0
-1169 -396 -477 0
-1169 -396 -481 0
-1169 -396 -497 0
-1169 -396 -501 0
-1169 -396 -505 0
-1169 -396 -391 -405 0
-1169 -397 591 0
-1169 -397 -450 0
-1169 -397 -454 0
-1169 -397 -458 0
-1169 -397 -474 0
-1169 -397 -478 0
-1169 -397 -482 0
-1169 -397 -498 0
-1169 -397 -502 0
-1169 -397 -506 0
-1169 -397 -391 -406 0
-1169 -398 592 0
-1169 -398 -451 0
-1169 -398 -455 0
-1169 -398 -459 0
-1169 -398 -475 0
-1169 -398 -479 0
-1169 -398 -483 0
-1169 -398 -499 0
-1169 -398 -503 0
-1169 -398 -507 0
-1169 -398 -391 -407 0
-1169 -399 0
-1170 411 0
-1170 573 0
-1170 -386 0
-1170 -387 0
-1170 -400 590 0
-1170 -400 -437 0
-1170 -400 -441 0
-1170 -400 -445 0
-1170 -400 -461 0
-1170 -400 -465 0
-1170 -400 -469 0
-1170 -400 -485 0
-1170 -400 -489 0
-1170 -400 -493 0
-1170 -400 -388 -405 0
-1170 -401 591 0
-1170 -401 -438 0
-1170 -401 -442 0
-1170 -401 -446 0
-1170 -401 -462 0
-1170 -401 -466 0
-1170 -401 -470 0
-1170 -401 -486 0
-1170 -401 -490 0
-1170 -401 -494 0
-1170 -401 -388 -406 0
-1170 -402 592 0
-1170 -402 -439 0
-1170 -402 -443 0
-1170 -402 -447 0
-1170 -402 -463 0
-1170 -402 -467 0
-1170 -402 -471 0
-1170 -402 -487 0
-1170 -402 -491 0
-1170 -402 -495 0
-1170 -402 -388 -407 0
-1170 -403 0
-1171 411 0
-1171 574 0
-1171 -387 0
-1171 -400 590 0
-1171 -400 -441 0
-1171 -400 -445 0
-1171 -400 -449 0
-1171 -400 -465 0
-1171 -400 -469 0
-1171 -400 -473 0
-1171 -400 -489 0
-1171 -400 -493 0
-1171 -400 -497 0
-1171 -400 -389 -405 0
-1171 -401 591 0
-1171 -401 -442 0
-1171 -401 -446 0
-1171 -401 -450 0
-1171 -401 -466 0
-1171 -401 -470 0
-1171 -401 -474 0
-1171 -401 -490 0
-1171 -401 -494 0
-1171 -401 -498 0
-1171 -401 -389 -406 0
-1171 -402 592 0
-1171 -402 -443 0
-1171 -402 -447 0
-1171 -402 -451 0
-1171 -402 -467 0
-1171 -402 -471 0
-1171 -402 -475 0
-1171 -402 -491 0
-1171 -402 -495 0
-1171 -402 -499 0
-1171 -402 -389 -407 0
-1171 -403 0
-1172 411 0
-1172 575 0
-1172 -383 0
-1172 -400 590 0
-1172 -400 -445 0
-1172 -400 -449 0
-1172 -400 -453 0
-1172 -400 -469 0
-1172 -400 -473 0
-1172 -400 -477 0
-1172 -400 -493 0
-1172 -400 -497 0
-1172 -400 -501 0
-1172 -400 -390 -405 0
-1172 -401 591 0
-1172 -401 -446 0
-1172 -401 -450 0
-1172 -401 -454 0
-1172 -401 -470 0
-1172 -401 -474 0
-1172 -401 -478 0
-1172 -401 -494 0
-1172 -401 -498 0
-1172 -401 -502 0
-1172 -401 -390 -406 0
-1172 -402 592 0
-1172 -402 -447 0
-1172 -402 -451 0
-1172 -402 -455 0
-1172 -402 -471 0
-1172 -402 -475 0
-1172 -402 -479 0
-1172 -402 -495 0
-1172 -402 -499 0
-1172 -402 -503 0
-1172 -402 -390 -407 0
-1172 -403 0
-1173 411 0
-1173 576 0
-1173 -383 0
-1173 -384 0
-1173 -400 590 0
-1173 -400 -449 0
-1173 -400 -453 0
-1173 -400 -457 0
-1173 -400 -473 0
-1173 -400 -477 0
-1173 -400 -481 0
-1173 -400 -497 0
-1173 -400 -501 0
-1173 -400 -505 0
-1173 -400 -391 -405 0
-1173 -401 591 0
-1173 -401 -450 0
-1173 -401 -454 0
-1173 -401 -458 0
-1173 -401 -474 0
-1173 -401 -478 0
-1173 -401 -482 0
-1173 -401 -498 0
-1173 -401 -502 0
-1173 -401 -506 0
-1173 -401 -391 -406 0
-1173 -402 592 0
-1173 -402 -451 0
-1173 -402 -455 0
-1173 -402 -459 0
-1173 -402 -475 0
-1173 -402 -479 0
-1173 -402 -483 0
-1173 -402 -499 0
-1173 -402 -503 0
-1173 -402 -507 0
-1173 -402 -391 -407 0
-1173 -403 0
-1174 411 0
-1174 573 0
-1174 589 0
-1174 -436 0
-1174 -440 0
-1174 -444 0
-1174 -460 0
-1174 -464 0
-1174 -468 0
-1174 -484 0
-1174 -488 0
-1174 -492 0
-1174 -388 -404 0
-1175 411 0
-1175 574 0
-1175 589 0
-1175 -440 0
-1175 -444 0
-1175 -448 0
-1175 -464 0
-1175 -468 0
-1175 -472 0
-1175 -488 0
-1175 -492 0
-1175 -496 0
-1175 -389 -404 0
-1176 411 0
-1176 575 0
-1176 589 0
-1176 -444 0
-1176 -448 0
-1176 -452 0
-1176 -468 0
-1176 -472 0
-1176 -476 0
-1176 -492 0
-1176 -496 0
-1176 -500 0
-1176 -390 -404 0
-1177 411 0
-1177 576 0
-1177 589 0
-1177 -448 0
-1177 -452 0
-1177 -456 0
-1177 -472 0
-1177 -476 0
-1177 -480 0
-1177 -496 0
-1177 -500 0
-1177 -504 0
-1177 -391 -404 0
-371 556 1094 1095 1096 1097 1098 1099 1100 1101 1102 1103 1104 1105 1106 1107 1108 1109 1110 1111 1112 1113 1114 1115 1116 1117 0
-372 557 1094 1095 1096 1097 1098 1099 1100 1101 1102 1103 1104 1105 1106 1107 1108 1109 1110 1111 1112 1113 1114 1115 1116 1117 0
-373 558 1094 1095 1096 1097 1098 1099 1100 1101 1102 1103 1104 1105 1106 1107 1108 1109 1110 1111 1112 1113 1114 1115 1116 1117 0
-374 559 1094 1095 1096 1097 1098 1099 1100 1101 1102 1103 1104 1105 1106 1107 1108 1109 1110 1111 1112 1113 1114 1115 1116 1117 0
-375 560 1094 1095 1096 1097 1098 1099 1100 1101 1102 1103 1104 1105 1106 1107 1108 1109 1110 1111 1112 1113 1114 1115 1116 1117 0
-376 561 1094 1095 1096 1097 1098 1099 1100 1101 1102 1103 1104 1105 1106 1107 1108 1109 1110 1111 1112 1113 1114 1115 1116 1117 0
-392 577 1094 1095 1096 1097 1098 1099 1100 1101 1102 1103 1104 1105 1106 1107 1108 1109 1110 1111 1112 1113 1114 1115 1116 1117 0
-393 578 1094 1095 1096 1097 1098 1099 1100 1101 1102 1103 1104 1105 1106 1107 1108 1109 1110 1111 1112 1113 1114 1115 1116 1117 0
-394 579 1094 1095 1096 1097 1098 1099 1100 1101 1102 1103 1104 1105 1106 1107 1108 1109 1110 1111 1112 1113 1114 1115 1116 1117 0
-395 580 1094 1095 1096 1097 1098 1099 1100 1101 1102 1103 1104 1105 1106 1107 1108 1109 1110 1111 1112 1113 1114 1115 1116 1117 0
-377 562 1118 1119 1120 1121 1122 1123 1124 1125 1126 1127 1128 1129 1130 1131 1132 1133 1134 1135 1136 1137 1138 1139 1140 1141 0
-378 563 1118 1119 1120 1121 1122 1123 1124 1125 1126 1127 1128 1129 1130 1131 1132 1133 1134 1135 1136 1137 1138 1139 1140 1141 0
-379 564 1118 1119 1120 1121 1122 1123 1124 1125 1126 1127 1128 1129 1130 1131 1132 1133 1134 1135 1136 1137 1138 1139 1140 1141 0
-380 565 1118 1119 1120 1121 1122 1123 1124 1125 1126 1127 1128 1129 1130 1131 1132 1133 1134 1135 1136 1137 1138 1139 1140 1141 0
-381 566 1118 1119 1120 1121 1122 1123 1124 1125 1126 1127 1128 1129 1130 1131 1132 1133 1134 1135 1136 1137 1138 1139 1140 1141 0
-382 567 1118 1119 1120 1121 1122 1123 1124 1125 1126 1127 1128 1129 1130 1131 1132 1133 1134 1135 1136 1137 1138 1139 1140 1141 0
-396 581 1118 1119 1120 1121 1122 1123 1124 1125 1126 1127 1128 1129 1130 1131 1132 1133 1134 1135 1136 1137 1138 1139 1140 1141 0
-397 582 1118 1119 1120 1121 1122 1123 1124 1125 1126 1127 1128 1129 1130 1131 1132 1133 1134 1135 1136 1137 1138 1139 1140 1141 0
-398 583 1118 1119 1120 1121 1122 1123 1124 1125 1126 1127 1128 1129 1130 1131 1132 1133 1134 1135 1136 1137 1138 1139 1140 1141 0
-399 584 1118 1119 1120 1121 1122 1123 1124 1125 1126 1127 1128 1129 1130 1131 1132 1133 1134 1135 1136 1137 1138 1139 1140 1141 0
-383 568 1142 1143 1144 1145 1146 1147 1148 1149 1150 1151 1152 1153 1154 1155 1156 1157 1158 1159 1160 1161 0
-384 569 1142 1143 1144 1145 1146 1147 1148 1149 1150 1151 1152 1153 1154 1155 1156 1157 1158 1159 1160 1161 0
-385 570 1142 1143 1144 1145 1146 1147 1148 1149 1150 1151 1152 1153 1154 1155 1156 1157 1158 1159 1160 1161 0
-386 571 1142 1143 1144 1145 1146 1147 1148 1149 1150 1151 1152 1153 1154 1155 1156 1157 1158 1159 1160 1161 0
-387 572 1142 1143 1144 1145 1146 1147 1148 1149 1150 1151 1152 1153 1154 1155 1156 1157 1158 1159 1160 1161 0
-400 585 1142 1143 1144 1145 1146 1147 1148 1149 1150 1151 1152 1153 1154 1155 1156 1157 1158 1159 1160 1161 0
-401 586 1142 1143 1144 1145 1146 1147 1148 1149 1150 1151 1152 1153 1154 1155 1156 1157 1158 1159 1160 1161 0
-402 587 1142 1143 1144 1145 1146 1147 1148 1149 1150 1151 1152 1153 1154 1155 1156 1157 1158 1159 1160 1161 0
-403 588 1142 1143 1144 1145 1146 1147 1148 1149 1150 1151 1152 1153 1154 1155 1156 1157 1158 1159 1160 1161 0
-388 573 1162 1163 1164 1165 1166 1167 1168 1169 1170 1171 1172 1173 1174 1175 1176 1177 0
-389 574 1162 1163 1164 1165 1166 1167 1168 1169 1170 1171 1172 1173 1174 1175 1176 1177 0
-390 575 1162 1163 1164 1165 1166 1167 1168 1169 1170 1171 1172 1173 1174 1175 1176 1177 0
-391 576 1162 1163 1164 1165 1166 1167 1168 1169 1170 1171 1172 1173 1174 1175 1176 1177 0
-404 589 1162 1163 1164 1165 1166 1167 1168 1169 1170 1171 1172 1173 1174 1175 1176 1177 0
-405 590 1162 1163 1164 1165 1166 1167 1168 1169 1170 1171 1172 1173 1174 1175 1176 1177 0
-406 591 1162 1163 1164 1165 1166 1167 1168 1169 1170 1171 1172 1173 1174 1175 1176 1177 0
-407 592 1162 1163 1164 1165 1166 1167 1168 1169 1170 1171 1172 1173 1174 1175 1176 1177 0
-1178 -1179 0
-1178 -1180 0
-1178 -1181 0
-1178 -1182 0
-1178 -1183 0
-1178 -1184 0
-1178 -1185 0
-1178 -1186 0
-1178 -1187 0
-1178 -1188 0
-1178 -1189 0
-1178 -1190 0
-1178 -1191 0
-1178 -1192 0
-1178 -1193 0
-1178 -1194 0
-1178 -1195 0
-1178 -1196 0
-1178 -1197 0
-1178 -1198 0
-1178 -1199 0
-1178 -1200 0
-1178 -1201 0
-1178 -1202 0
-1178 -1203 0
-1178 -1204 0
-1178 -1205 0
-1178 -1206 0
-1178 -1207 0
-1178 -1208 0
-1178 -1209 0
-1178 -1210 0
-1178 -1211 0
-1178 -1212 0
-1178 -1213 0
-1178 -1214 0
-1178 -1215 0
-1178 -1216 0
-1178 -1217 0
-1178 -1218 0
-1178 -1219 0
-1178 -1220 0
-1178 -1221 0
-1178 -1222 0
-1178 -1223 0
-1178 -1224 0
-1178 -1225 0
-1178 -1226 0
-1178 -1227 0
-1178 -1228 0
-1178 -1229 0
-1178 -1230 0
-1178 -1231 0
-1178 -1232 0
-1178 -1233 0
-1178 -1234 0
-1178 -1235 0
-1178 -1236 0
-1178 -1237 0
-1178 -1238 0
-1178 -1239 0
-1178 -1240 0
-1178 -1241 0
-1178 -1242 0
-1178 -1243 0
-1178 -1244 0
-1178 -1245 0
-1178 -1246 0
-1178 -1247 0
-1178 -1248 0
-1178 -1249 0
-1178 -1250 0
-1178 -1251 0
-1178 -1252 0
-1178 -1253 0
-1178 -1254 0
-1178 -1255 0
-1178 -1256 0
-1178 -1257 0
-1178 -1258 0
-1178 -1259 0
-1178 -1260 0
-1178 -1261 0
-1179 -1180 0
-1179 -1181 0
-1179 -1182 0
-1179 -1183 0
-1179 -1184 0
-1179 -1185 0
-1179 -1186 0
-1179 -1187 0
-1179 -1188 0
-1179 -1189 0
-1179 -1190 0
-1179 -1191 0
-1179 -1192 0
-1179 -1193 0
-1179 -1194 0
-1179 -1195 0
-1179 -1196 0
-1179 -1197 0
-1179 -1198 0
-1179 -1199 0
-1179 -1200 0
-1179 -1201 0
-1179 -1202 0
-1179 -1203 0
-1179 -1204 0
-1179 -1205 0
-1179 -1206 0
-1179 -1207 0
-1179 -1208 0
-1179 -1209 0
-1179 -1210 0
-1179 -1211 0
-1179 -1212 0
-1179 -1213 0
-1179 -1214 0
-1179 -1215 0
-1179 -1216 0
-1179 -1217 0
-1179 -1218 0
-1179 -1219 0
-1179 -1220 0
-1179 -1221 0
-1179 -1222 0
-1179 -1223 0
-1179 -1224 0
-1179 -1225 0
-1179 -1226 0
-1179 -1227 0
-1179 -1228 0
-1179 -1229 0
-1179 -1230 0
-1179 -1231 0
-1179 -1232 0
-1179 -1233 0
-1179 -1234 0
-1179 -1235 0
-1179 -1236 0
-1179 -1237 0
-1179 -1238 0
-1179 -1239 0
-1179 -1240 0
-1179 -1241 0
-1179 -1242 0
-1179 -1243 0
-1179 -1244 0
-1179 -1245 0
-1179 -1246 0
-1179 -1247 0
-1179 -1248 0
-1179 -1249 0
-1179 -1250 0
-1179 -1251 0
-1179 -1252 0
-1179 -1253 0
-1179 -1254 0
-1179 -1255 0
-1179 -1256 0
-1179 -1257 0
-1179 -1258 0
-1179 -1259 0
-1179 -1260 0
-1179 -1261 0
-1180 -1181 0
-1180 -1182 0
-1180 -1183 0
-1180 -1184 0
-1180 -1185 0
-1180 -1186 0
-1180 -1187 0
-1180 -1188 0
-1180 -1189 0
-1180 -1190 0
-1180 -1191 0
-1180 -1192 0
-1180 -1193 0
-1180 -1194 0
-1180 -1195 0
-1180 -1196 0
-1180 -1197 0
-1180 -1198 0
-1180 -1199 0
-1180 -1200 0
-1180 -1201 0
-1180 -1202 0
-1180 -1203 0
-1180 -1204 0
-1180 -1205 0
-1180 -1206 0
-1180 -1207 0
-1180 -1208 0
-1180 -1209 0
-1180 -1210 0
-1180 -1211 0
-1180 -1212 0
-1180 -1213 0
-1180 -1214 0
-1180 -1215 0
-1180 -1216 0
-1180 -1217 0
-1180 -1218 0
-1180 -1219 0
-1180 -1220 0
-1180 -1221 0
-1180 -1222 0
-1180 -1223 0
-1180 -1224 0
-1180 -1225 0
-1180 -1226 0
-1180 -1227 0
-1180 -1228 0
-1180 -1229 0
-1180 -1230 0
-1180 -1231 0
-1180 -1232 0
-1180 -1233 0
-1180 -1234 0
-1180 -1235 0
-1180 -1236 0
-1180 -1237 0
-1180 -1238 0
-1180 -1239 0
-1180 -1240 0
-1180 -1241 0
-1180 -1242 0
-1180 -1243 0
-1180 -1244 0
-1180 -1245 0
-1180 -1246 0
-1180 -1247 0
-1180 -1248 0
-1180 -1249 0
-1180 -1250 0
-1180 -1251 0
-1180 -1252 0
-1180 -1253 0
-1180 -1254 0
-1180 -1255 0
-1180 -1256 0
-1180 -1257 0
-1180 -1258 0
-1180 -1259 0
-1180 -1260 0
-1180 -1261 0
-1181 -1182 0
-1181 -1183 0
-1181 -1184 0
-1181 -1185 0
-1181 -1186 0
-1181 -1187 0
-1181 -1188 0
-1181 -1189 0
-1181 -1190 0
-1181 -1191 0
-1181 -1192 0
-1181 -1193 0
-1181 -1194 0
-1181 -1195 0
-1181 -1196 0
-1181 -1197 0
-1181 -1198 0
-1181 -1199 0
-1181 -1200 0
-1181 -1201 0
-1181 -1202 0
-1181 -1203 0
-1181 -1204 0
-1181 -1205 0
-1181 -1206 0
-1181 -1207 0
-1181 -1208 0
-1181 -1209 0
-1181 -1210 0
-1181 -1211 0
-1181 -1212 0
-1181 -1213 0
-1181 -1214 0
-1181 -1215 0
-1181 -1216 0
-1181 -1217 0
-1181 -1218 0
-1181 -1219 0
-1181 -1220 0
-1181 -1221 0
-1181 -1222 0
-1181 -1223 0
-1181 -1224 0
-1181 -1225 0
-1181 -1226 0
-1181 -1227 0
-1181 -1228 0
-1181 -1229 0
-1181 -1230 0
-1181 -1231 0
-1181 -1232 0
-1181 -1233 0
-1181 -1234 0
-1181 -1235 0
-1181 -1236 0
-1181 -1237 0
-1181 -1238 0
-1181 -1239 0
-1181 -1240 0
-1181 -1241 0
-1181 -1242 0
-1181 -1243 0
-1181 -1244 0
-1181 -1245 0
-1181 -1246 0
-1181 -1247 0
-1181 -1248 0
-1181 -1249 0
-1181 -1250 0
-1181 -1251 0
-1181 -1252 0
-1181 -1253 0
-1181 -1254 0
-1181 -1255 0
-1181 -1256 0
-1181 -1257 0
-1181 -1258 0
-1181 -1259 0
-1181 -1260 0
-1181 -1261 0
-1182 -1183 0
-1182 -1184 0
-1182 -1185 0
-1182 -1186 0
-1182 -1187 0
-1182 -1188 0
-1182 -1189 0
-1182 -1190 0
-1182 -1191 0
-1182 -1192 0
-1182 -1193 0
-1182 -1194 0
-1182 -1195 0
-1182 -1196 0
-1182 -1197 0
-1182 -1198 0
-1182 -1199 0
-1182 -1200 0
-1182 -1201 0
-1182 -1202 0
-1182 -1203 0
-1182 -1204 0
-1182 -1205 0
-1182 -1206 0
-1182 -1207 0
-1182 -1208 0
-1182 -1209 0
-1182 -1210 0
-1182 -1211 0
-1182 -1212 0
-1182 -1213 0
-1182 -1214 0
-1182 -1215 0
-1182 -1216 0
-1182 -1217 0
-1182 -1218 0
-1182 -1219 0
-1182 -1220 0
-1182 -1221 0
-1182 -1222 0
-1182 -1223 0
-1182 -1224 0
-1182 -1225 0
-1182 -1226 0
-1182 -1227 0
-1182 -1228 0
-1182 -1229 0
-1182 -1230 0
-1182 -1231 0
-1182 -1232 0
-1182 -1233 0
-1182 -1234 0
-1182 -1235 0
-1182 -1236 0
-1182 -1237 0
-1182 -1238 0
-1182 -1239 0
-1182 -1240 0
-1182 -1241 0
-1182 -1242 0
-1182 -1243 0
-1182 -1244 0
-1182 -1245 0
-1182 -1246 0
-1182 -1247 0
-1182 -1248 0
-1182 -1249 0
-1182 -1250 0
-1182 -1251 0
-1182 -1252 0
-1182 -1253 0
-1182 -1254 0
-1182 -1255 0
-1182 -1256 0
-1182 -1257 0
-1182 -1258 0
-1182 -1259 0
-1182 -1260 0
-1182 -1261 0
-1183 -1184 0
-1183 -1185 0
-1183 -1186 0
-1183 -1187 0
-1183 -1188 0
-1183 -1189 0
-1183 -1190 0
-1183 -1191 0
-1183 -1192 0
-1183 -1193 0
-1183 -1194 0
-1183 -1195 0
-1183 -1196 0
-1183 -1197 0
-1183 -1198 0
-1183 -1199 0
-1183 -1200 0
-1183 -1201 0
-1183 -1202 0
-1183 -1203 0
-1183 -1204 0
-1183 -1205 0
-1183 -1206 0
-1183 -1207 0
-1183 -1208 0
-1183 -1209 0
-1183 -1210 0
-1183 -1211 0
-1183 -1212 0
-1183 -1213 0
-1183 -1214 0
-1183 -1215 0
-1183 -1216 0
-1183 -1217 0
-1183 -1218 0
-1183 -1219 0
-1183 -1220 0
-1183 -1221 0
-1183 -1222 0
-1183 -1223 0
-1183 -1224 0
-1183 -1225 0
-1183 -1226 0
-1183 -1227 0
-1183 -1228 0
-1183 -1229 0
-1183 -1230 0
-1183 -1231 0
-1183 -1232 0
-1183 -1233 0
-1183 -1234 0
-1183 -1235 0
-1183 -1236 0
-1183 -1237 0
-1183 -1238 0
-1183 -1239 0
-1183 -1240 0
-1183 -1241 0
-1183 -1242 0
-1183 -1243 0
-1183 -1244 0
-1183 -1245 0
-1183 -1246 0
-1183 -1247 0
-1183 -1248 0
-1183 -1249 0
-1183 -1250 0
-1183 -1251 0
-1183 -1252 0
-1183 -1253 0
-1183 -1254 0
-1183 -1255 0
-1183 -1256 0
-1183 -1257 0
-1183 -1258 0
-1183 -1259 0
-1183 -1260 0
-1183 -1261 0
-1184 -1185 0
-1184 -1186 0
-1184 -1187 0
-1184 -1188 0
-1184 -1189 0
-1184 -1190 0
-1184 -1191 0
-1184 -1192 0
-1184 -1193 0
-1184 -1194 0
-1184 -1195 0
-1184 -1196 0
-1184 -1197 0
-1184 -1198 0
-1184 -1199 0
-1184 -1200 0
-1184 -1201 0
-1184 -1202 0
-1184 -1203 0
-1184 -1204 0
-1184 -1205 0
-1184 -1206 0
-1184 -1207 0
-1184 -1208 0
-1184 -1209 0
-1184 -1210 0
-1184 -1211 0
-1184 -1212 0
-1184 -1213 0
-1184 -1214 0
-1184 -1215 0
-1184 -1216 0
-1184 -1217 0
-1184 -1218 0
-1184 -1219 0
-1184 -1220 0
-1184 -1221 0
-1184 -1222 0
-1184 -1223 0
-1184 -1224 0
-1184 -1225 0
-1184 -1226 0
-1184 -1227 0
-1184 -1228 0
-1184 -1229 0
-1184 -1230 0
-1184 -1231 0
-1184 -1232 0
-1184 -1233 0
-1184 -1234 0
-1184 -1235 0
-1184 -1236 0
-1184 -1237 0
-1184 -1238 0
-1184 -1239 0
-1184 -1240 0
-1184 -1241 0
-1184 -1242 0
-1184 -1243 0
-1184 -1244 0
-1184 -1245 0
-1184 -1246 0
-1184 -1247 0
-1184 -1248 0
-1184 -1249 0
-1184 -1250 0
-1184 -1251 0
-1184 -1252 0
-1184 -1253 0
-1184 -1254 0
-1184 -1255 0
-1184 -1256 0
-1184 -1257 0
-1184 -1258 0
-1184 -1259 0
-1184 -1260 0
-1184 -1261 0
-1185 -1186 0
-1185 -1187 0
-1185 -1188 0
-1185 -1189 0
-1185 -1190 0
-1185 -1191 0
-1185 -1192 0
-1185 -1193 0
-1185 -1194 0
-1185 -1195 0
-1185 -1196 0
-1185 -1197 0
-1185 -1198 0
-1185 -1199 0
-1185 -1200 0
-1185 -1201 0
-1185 -1202 0
-1185 -1203 0
-1185 -1204 0
-1185 -1205 0
-1185 -1206 0
-1185 -1207 0
-1185 -1208 0
-1185 -1209 0
-1185 -1210 0
-1185 -1211 0
-1185 -1212 0
-1185 -1213 0
-1185 -1214 0
-1185 -1215 0
-1185 -1216 0
-1185 -1217 0
-1185 -1218 0
-1185 -1219 0
-1185 -1220 0
-1185 -1221 0
-1185 -1222 0
-1185 -1223 0
-1185 -1224 0
-1185 -1225 0
-1185 -1226 0
-1185 -1227 0
-1185 -1228 0
-1185 -1229 0
-1185 -1230 0
-1185 -1231 0
-1185 -1232 0
-1185 -1233 0
-1185 -1234 0
-1185 -1235 0
-1185 -1236 0
-1185 -1237 0
-1185 -1238 0
-1185 -1239 0
-1185 -1240 0
-1185 -1241 0
-1185 -1242 0
-1185 -1243 0
-1185 -1244 0
-1185 -1245 0
-1185 -1246 0
-1185 -1247 0
-1185 -1248 0
-1185 -1249 0
-1185 -1250 0
-1185 -1251 0
-1185 -1252 0
-1185 -1253 0
-1185 -1254 0
-1185 -1255 0
-1185 -1256 0
-1185 -1257 0
-1185 -1258 0
-1185 -1259 0
-1185 -1260 0
-1185 -1261 0
-1186 -1187 0
-1186 -1188 0
-1186 -1189 0
-1186 -1190 0
-1186 -1191 0
-1186 -1192 0
-1186 -1193 0
-1186 -1194 0
-1186 -1195 0
-1186 -1196 0
-1186 -1197 0
-1186 -1198 0
-1186 -1199 0
-1186 -1200 0
-1186 -1201 0
-1186 -1202 0
-1186 -1203 0
-1186 -1204 0
-1186 -1205 0
-1186 -1206 0
-1186 -1207 0
-1186 -1208 0
-1186 -1209 0
-1186 -1210 0
-1186 -1211 0
-1186 -1212 0
-1186 -1213 0
-1186 -1214 0
-1186 -1215 0
-1186 -1216 0
-1186 -1217 0
-1186 -1218 0
-1186 -1219 0
-1186 -1220 0
-1186 -1221 0
-1186 -1222 0
-1186 -1223 0
-1186 -1224 0
-1186 -1225 0
-1186 -1226 0
-1186 -1227 0
-1186 -1228 0
-1186 -1229 0
-1186 -1230 0
-1186 -1231 0
-1186 -1232 0
-1186 -1233 0
-1186 -1234 0
-1186 -1235 0
-1186 -1236 0
-1186 -1237 0
-1186 -1238 0
-1186 -1239 0
-1186 -1240 0
-1186 -1241 0
-1186 -1242 0
-1186 -1243 0
-1186 -1244 0
-1186 -1245 0
-1186 -1246 0
-1186 -1247 0
-1186 -1248 0
-1186 -1249 0
-1186 -1250 0
-1186 -1251 0
-1186 -1252 0
-1186 -1253 0
-1186 -1254 0
-1186 -1255 0
-1186 -1256 0
-1186 -1257 0
-1186 -1258 0
-1186 -1259 0
-1186 -1260 0
-1186 -1261 0
-1187 -1188 0
-1187 -1189 0
-1187 -1190 0
-1187 -1191 0
-1187 -1192 0
-1187 -1193 0
-1187 -1194 0
-1187 -1195 0
-1187 -1196 0
-1187 -1197 0
-1187 -1198 0
-1187 -1199 0
-1187 -1200 0
-1187 -1201 0
-1187 -1202 0
-1187 -1203 0
-1187 -1204 0
-1187 -1205 0
-1187 -1206 0
-1187 -1207 0
-1187 -1208 0
-1187 -1209 0
-1187 -1210 0
-1187 -1211 0
-1187 -1212 0
-1187 -1213 0
-1187 -1214 0
-1187 -1215 0
-1187 -1216 0
-1187 -1217 0
-1187 -1218 0
-1187 -1219 0
-1187 -1220 0
-1187 -1221 0
-1187 -1222 0
-1187 -1223 0
-1187 -1224 0
-1187 -1225 0
-1187 -1226 0
-1187 -1227 0
-1187 -1228 0
-1187 -1229 0
-1187 -1230 0
-1187 -1231 0
-1187 -1232 0
-1187 -1233 0
-1187 -1234 0
-1187 -1235 0
-1187 -1236 0
-1187 -1237 0
-1187 -1238 0
-1187 -1239 0
-1187 -1240 0
-1187 -1241 0
-1187 -1242 0
-1187 -1243 0
-1187 -1244 0
-1187 -1245 0
-1187 -1246 0
-1187 -1247 0
-1187 -1248 0
-1187 -1249 0
-1187 -1250 0
-1187 -1251 0
-1187 -1252 0
-1187 -1253 0
-1187 -1254 0
-1187 -1255 0
-1187 -1256 0
-1187 -1257 0
-1187 -1258 0
-1187 -1259 0
-1187 -1260 0
-1187 -1261 0
-1188 -1189 0
-1188 -1190 0
-1188 -1191 0
-1188 -1192 0
-1188 -1193 0
-1188 -1194 0
-1188 -1195 0
-1188 -1196 0
-1188 -1197 0
-1188 -1198 0
-1188 -1199 0
-1188 -1200 0
-1188 -1201 0
-1188 -1202 0
-1188 -1203 0
-1188 -1204 0
-1188 -1205 0
-1188 -1206 0
-1188 -1207 0
-1188 -1208 0
-1188 -1209 0
-1188 -1210 0
-1188 -1211 0
-1188 -1212 0
-1188 -1213 0
-1188 -1214 0
-1188 -1215 0
-1188 -1216 0
-1188 -1217 0
-1188 -1218 0
-1188 -1219 0
-1188 -1220 0
-1188 -1221 0
-1188 -1222 0
-1188 -1223 0
-1188 -1224 0
-1188 -1225 0
-1188 -1226 0
-1188 -1227 0
-1188 -1228 0
-1188 -1229 0
-1188 -1230 0
-1188 -1231 0
-1188 -1232 0
-1188 -1233 0
-1188 -1234 0
-1188 -1235 0
-1188 -1236 0
-1188 -1237 0
-1188 -1238 0
-1188 -1239 0
-1188 -1240 0
-1188 -1241 0
-1188 -1242 0
-1188 -1243 0
-1188 -1244 0
-1188 -1245 0
-1188 -1246 0
-1188 -1247 0
-1188 -1248 0
-1188 -1249 0
-1188 -1250 0
-1188 -1251 0
-1188 -1252 0
-1188 -1253 0
-1188 -1254 0
-1188 -1255 0
-1188 -1256 0
-1188 -1257 0
-1188 -1258 0
-1188 -1259 0
-1188 -1260 0
-1188 -1261 0
-1189 -1190 0
-1189 -1191 0
-1189 -1192 0
-1189 -1193 0
-1189 -1194 0
-1189 -1195 0
-1189 -1196 0
-1189 -1197 0
-1189 -1198 0
-1189 -1199 0
-1189 -1200 0
-1189 -1201 0
-1189 -1202 0
-1189 -1203 0
-1189 -1204 0
-1189 -1205 0
-1189 -1206 0
-1189 -1207 0
-1189 -1208 0
-1189 -1209 0
-1189 -1210 0
-1189 -1211 0
-1189 -1212 0
-1189 -1213 0
-1189 -1214 0
-1189 -1215 0
-1189 -1216 0
-1189 -1217 0
-1189 -1218 0
-1189 -1219 0
-1189 -1220 0
-1189 -1221 0
-1189 -1222 0
-1189 -1223 0
-1189 -1224 0
-1189 -1225 0
-1189 -1226 0
-1189 -1227 0
-1189 -1228 0
-1189 -1229 0
-1189 -1230 0
-1189 -1231 0
-1189 -1232 0
-1189 -1233 0
-1189 -1234 0
-1189 -1235 0
-1189 -1236 0
-1189 -1237 0
-1189 -1238 0
-1189 -1239 0
-1189 -1240 0
-1189 -1241 0
-1189 -1242 0
-1189 -1243 0
-1189 -1244 0
-1189 -1245 0
-1189 -1246 0
-1189 -1247 0
-1189 -1248 0
-1189 -1249 0
-1189 -1250 0
-1189 -1251 0
-1189 -1252 0
-1189 -1253 0
-1189 -1254 0
-1189 -1255 0
-1189 -1256 0
-1189 -1257 0
-1189 -1258 0
-1189 -1259 0
-1189 -1260 0
-1189 -1261 0
-1190 -1191 0
-1190 -1192 0
-1190 -1193 0
-1190 -1194 0
-1190 -1195 0
-1190 -1196 0
-1190 -1197 0
-1190 -1198 0
-1190 -1199 0
-1190 -1200 0
-1190 -1201 0
-1190 -1202 0
-1190 -1203 0
-1190 -1204 0
-1190 -1205 0
-1190 -1206 0
-1190 -1207 0
-1190 -1208 0
-1190 -1209 0
-1190 -1210 0
-1190 -1211 0
-1190 -1212 0
-1190 -1213 0
-1190 -1214 0
-1190 -1215 0
-1190 -1216 0
-1190 -1217 0
-1190 -1218 0
-1190 -1219 0
-1190 -1220 0
-1190 -1221 0
-1190 -1222 0
-1190 -1223 0
-1190 -1224 0
-1190 -1225 0
-1190 -1226 0
-1190 -1227 0
-1190 -1228 0
-1190 -1229 0
-1190 -1230 0
-1190 -1231 0
-1190 -1232 0
-1190 -1233 0
-1190 -1234 0
-1190 -1235 0
-1190 -1236 0
-1190 -1237 0
-1190 -1238 0
-1190 -1239 0
-1190 -1240 0
-1190 -1241 0
-1190 -1242 0
-1190 -1243 0
-1190 -1244 0
-1190 -1245 0
-1190 -1246 0
-1190 -1247 0
-1190 -1248 0
-1190 -1249 0
-1190 -1250 0
-1190 -1251 0
-1190 -1252 0
-1190 -1253 0
-1190 -1254 0
-1190 -1255 0
-1190 -1256 0
-1190 -1257 0
-1190 -1258 0
-1190 -1259 0
-1190 -1260 0
-1190 -1261 0
-1191 -1192 0
-1191 -1193 0
-1191 -1194 0
-1191 -1195 0
-1191 -1196 0
-1191 -1197 0
-1191 -1198 0
-1191 -1199 0
-1191 -1200 0
-1191 -1201 0
-1191 -1202 0
-1191 -1203 0
-1191 -1204 0
-1191 -1205 0
-1191 -1206 0
-1191 -1207 0
-1191 -1208 0
-1191 -1209 0
-1191 -1210 0
-1191 -1211 0
-1191 -1212 0
-1191 -1213 0
-1191 -1214 0
-1191 -1215 0
-1191 -1216 0
-1191 -1217 0
-1191 -1218 0
-1191 -1219 0
-1191 -1220 0
-1191 -1221 0
-1191 -1222 0
-1191 -1223 0
-1191 -1224 0
-1191 -1225 0
-1191 -1226 0
-1191 -1227 0
-1191 -1228 0
-1191 -1229 0
-1191 -1230 0
-1191 -1231 0
-1191 -1232 0
-1191 -1233 0
-1191 -1234 0
-1191 -1235 0
-1191 -1236 0
-1191 -1237 0
-1191 -1238 0
-1191 -1239 0
-1191 -1240 0
-1191 -1241 0
-1191 -1242 0
-1191 -1243 0
-1191 -1244 0
-1191 -1245 0
-1191 -1246 0
-1191 -1247 0
-1191 -1248 0
-1191 -1249 0
-1191 -1250 0
-1191 -1251 0
-1191 -1252 0
-1191 -1253 0
-1191 -1254 0
-1191 -1255 0
-1191 -1256 0
-1191 -1257 0
-1191 -1258 0
-1191 -1259 0
-1191 -1260 0
-1191 -1261 0
-1192 -1193 0
-1192 -1194 0
-1192 -1195 0
-1192 -1196 0
-1192 -1197 0
-1192 -1198 0
-1192 -1199 0
-1192 -1200 0
-1192 -1201 0
-1192 -1202 0
-1192 -1203 0
-1192 -1204 0
-1192 -1205 0
-1192 -1206 0
-1192 -1207 0
-1192 -1208 0
-1192 -1209 0
-1192 -1210 0
-1192 -1211 0
-1192 -1212 0
-1192 -1213 0
-1192 -1214 0
-1192 -1215 0
-1192 -1216 0
-1192 -1217 0
-1192 -1218 0
-1192 -1219 0
-1192 -1220 0
-1192 -1221 0
-1192 -1222 0
-1192 -1223 0
-1192 -1224 0
-1192 -1225 0
-1192 -1226 0
-1192 -1227 0
-1192 -1228 0
-1192 -1229 0
-1192 -1230 0
-1192 -1231 0
-1192 -1232 0
-1192 -1233 0
-1192 -1234 0
-1192 -1235 0
-1192 -1236 0
-1192 -1237 0
-1192 -1238 0
-1192 -1239 0
-1192 -1240 0
-1192 -1241 0
-1192 -1242 0
-1192 -1243 0
-1192 -1244 0
-1192 -1245 0
-1192 -1246 0
-1192 -1247 0
-1192 -1248 0
-1192 -1249 0
-1192 -1250 0
-1192 -1251 0
-1192 -1252 0
-1192 -1253 0
-1192 -1254 0
-1192 -1255 0
-1192 -1256 0
-1192 -1257 0
-1192 -1258 0
-1192 -1259 0
-1192 -1260 0
-1192 -1261 0
-1193 -1194 0
-1193 -1195 0
-1193 -1196 0
-1193 -1197 0
-1193 -1198 0
-1193 -1199 0
-1193 -1200 0
-1193 -1201 0
-1193 -1202 0
-1193 -1203 0
-1193 -1204 0
-1193 -1205 0
-1193 -1206 0
-1193 -1207 0
-1193 -1208 0
-1193 -1209 0
-1193 -1210 0
-1193 -1211 0
-1193 -1212 0
-1193 -1213 0
-1193 -1214 0
-1193 -1215 0
-1193 -1216 0
-1193 -1217 0
-1193 -1218 0
-1193 -1219 0
-1193 -1220 0
-1193 -1221 0
-1193 -1222 0
-1193 -1223 0
-1193 -1224 0
-1193 -1225 0
-1193 -1226 0
-1193 -1227 0
-1193 -1228 0
-1193 -1229 0
-1193 -1230 0
-1193 -1231 0
-1193 -1232 0
-1193 -1233 0
-1193 -1234 0
-1193 -1235 0
-1193 -1236 0
-1193 -1237 0
-1193 -1238 0
-1193 -1239 0
-1193 -1240 0
-1193 -1241 0
-1193 -1242 0
-1193 -1243 0
-1193 -1244 0
-1193 -1245 0
-1193 -1246 0
-1193 -1247 0
-1193 -1248 0
-1193 -1249 0
-1193 -1250 0
-1193 -1251 0
-1193 -1252 0
-1193 -1253 0
-1193 -1254 0
-1193 -1255 0
-1193 -1256 0
-1193 -1257 0
-1193 -1258 0
-1193 -1259 0
-1193 -1260 0
-1193 -1261 0
-1194 -1195 0
-1194 -1196 0
-1194 -1197 0
-1194 -1198 0
-1194 -1199 0
-1194 -1200 0
-1194 -1201 0
-1194 -1202 0
-1194 -1203 0
-1194 -1204 0
-1194 -1205 0
-1194 -1206 0
-1194 -1207 0
-1194 -1208 0
-1194 -1209 0
-1194 -1210 0
-1194 -1211 0
-1194 -1212 0
-1194 -1213 0
-1194 -1214 0
-1194 -1215 0
-1194 -1216 0
-1194 -1217 0
-1194 -1218 0
-1194 -1219 0
-1194 -1220 0
-1194 -1221 0
-1194 -1222 0
-1194 -1223 0
-1194 -1224 0
-1194 -1225 0
-1194 -1226 0
-1194 -1227 0
-1194 -1228 0
-1194 -1229 0
-1194 -1230 0
-1194 -1231 0
-1194 -1232 0
-1194 -1233 0
-1194 -1234 0
-1194 -1235 0
-1194 -1236 0
-1194 -1237 0
-1194 -1238 0
-1194 -1239 0
-1194 -1240 0
-1194 -1241 0
-1194 -1242 0
-1194 -1243 0
-1194 -1244 0
-1194 -1245 0
-1194 -1246 0
-1194 -1247 0
-1194 -1248 0
-1194 -1249 0
-1194 -1250 0
-1194 -1251 0
-1194 -1252 0
-1194 -1253 0
-1194 -1254 0
-1194 -1255 0
-1194 -1256 0
-1194 -1257 0
-1194 -1258 0
-1194 -1259 0
-1194 -1260 0
-1194 -1261 0
-1195 -1196 0
-1195 -1197 0
-1195 -1198 0
-1195 -1199 0
-1195 -1200 0
-1195 -1201 0
-1195 -1202 0
-1195 -1203 0
-1195 -1204 0
-1195 -1205 0
-1195 -1206 0
-1195 -1207 0
-1195 -1208 0
-1195 -1209 0
-1195 -1210 0
-1195 -1211 0
-1195 -1212 0
-1195 -1213 0
-1195 -1214 0
-1195 -1215 0
-1195 -1216 0
-1195 -1217 0
-1195 -1218 0
-1195 -1219 0
-1195 -1220 0
-1195 -1221 0
-1195 -1222 0
-1195 -1223 0
-1195 -1224 0
-1195 -1225 0
-1195 -1226 0
-1195 -1227 0
-1195 -1228 0
-1195 -1229 0
-1195 -1230 0
-1195 -1231 0
-1195 -1232 0
-1195 -1233 0
-1195 -1234 0
-1195 -1235 0
-1195 -1236 0
-1195 -1237 0
-1195 -1238 0
-1195 -1239 0
-1195 -1240 0
-1195 -1241 0
-1195 -1242 0
-1195 -1243 0
-1195 -1244 0
-1195 -1245 0
-1195 -1246 0
-1195 -1247 0
-1195 -1248 0
-1195 -1249 0
-1195 -1250 0
-1195 -1251 0
-1195 -1252 0
-1195 -1253 0
-1195 -1254 0
-1195 -1255 0
-1195 -1256 0
-1195 -1257 0
-1195 -1258 0
-1195 -1259 0
-1195 -1260 0
-1195 -1261 0
-1196 -1197 0
-1196 -1198 0
-1196 -1199 0
-1196 -1200 0
-1196 -1201 0
-1196 -1202 0
-1196 -1203 0
-1196 -1204 0
-1196 -1205 0
-1196 -1206 0
-1196 -1207 0
-1196 -1208 0
-1196 -1209 0
-1196 -1210 0
-1196 -1211 0
-1196 -1212 0
-1196 -1213 0
-1196 -1214 0
-1196 -1215 0
-1196 -1216 0
-1196 -1217 0
-1196 -1218 0
-1196 -1219 0
-1196 -1220 0
-1196 -1221 0
-1196 -1222 0
-1196 -1223 0
-1196 -1224 0
-1196 -1225 0
-1196 -1226 0
-1196 -1227 0
-1196 -1228 0
-1196 -1229 0
-1196 -1230 0
-1196 -1231 0
-1196 -1232 0
-1196 -1233 0
-1196 -1234 0
-1196 -1235 0
-1196 -1236 0
-1196 -1237 0
-1196 -1238 0
-1196 -1239 0
-1196 -1240 0
-1196 -1241 0
-1196 -1242 0
-1196 -1243 0
-1196 -1244 0
-1196 -1245 0
-1196 -1246 0
-1196 -1247 0
-1196 -1248 0
-1196 -1249 0
-1196 -1250 0
-1196 -1251 0
-1196 -1252 0
-1196 -1253 0
-1196 -1254 0
-1196 -1255 0
-1196 -1256 0
-1196 -1257 0
-1196 -1258 0
-1196 -1259 0
-1196 -1260 0
-1196 -1261 0
-1197 -1198 0
-1197 -1199 0
-1197 -1200 0
-1197 -1201 0
-1197 -1202 0
-1197 -1203 0
-1197 -1204 0
-1197 -1205 0
-1197 -1206 0
-1197 -1207 0
-1197 -1208 0
-1197 -1209 0
-1197 -1210 0
-1197 -1211 0
-1197 -1212 0
-1197 -1213 0
-1197 -1214 0
-1197 -1215 0
-1197 -1216 0
-1197 -1217 0
-1197 -1218 0
-1197 -1219 0
-1197 -1220 0
-1197 -1221 0
-1197 -1222 0
-1197 -1223 0
-1197 -1224 0
-1197 -1225 0
-1197 -1226 0
-1197 -1227 0
-1197 -1228 0
-1197 -1229 0
-1197 -1230 0
-1197 -1231 0
-1197 -1232 0
-1197 -1233 0
-1197 -1234 0
-1197 -1235 0
-1197 -1236 0
-1197 -1237 0
-1197 -1238 0
-1197 -1239 0
-1197 -1240 0
-1197 -1241 0
-1197 -1242 0
-1197 -1243 0
-1197 -1244 0
-1197 -1245 0
-1197 -1246 0
-1197 -1247 0
-1197 -1248 0
-1197 -1249 0
-1197 -1250 0
-1197 -1251 0
-1197 -1252 0
-1197 -1253 0
-1197 -1254 0
-1197 -1255 0
-1197 -1256 0
-1197 -1257 0
-1197 -1258 0
-1197 -1259 0
-1197 -1260 0
-1197 -1261 0
-1198 -1199 0
-1198 -1200 0
-1198 -1201 0
-1198 -1202 0
-1198 -1203 0
-1198 -1204 0
-1198 -1205 0
-1198 -1206 0
-1198 -1207 0
-1198 -1208 0
-1198 -1209 0
-1198 -1210 0
-1198 -1211 0
-1198 -1212 0
-1198 -1213 0
-1198 -1214 0
-1198 -1215 0
-1198 -1216 0
-1198 -1217 0
-1198 -1218 0
-1198 -1219 0
-1198 -1220 0
-1198 -1221 0
-1198 -1222 0
-1198 -1223 0
-1198 -1224 0
-1198 -1225 0
-1198 -1226 0
-1198 -1227 0
-1198 -1228 0
-1198 -1229 0
-1198 -1230 0
-1198 -1231 0
-1198 -1232 0
-1198 -1233 0
-1198 -1234 0
-1198 -1235 0
-1198 -1236 0
-1198 -1237 0
-1198 -1238 0
-1198 -1239 0
-1198 -1240 0
-1198 -1241 0
-1198 -1242 0
-1198 -1243 0
-1198 -1244 0
-1198 -1245 0
-1198 -1246 0
-1198 -1247 0
-1198 -1248 0
-1198 -1249 0
-1198 -1250 0
-1198 -1251 0
-1198 -1252 0
-1198 -1253 0
-1198 -1254 0
-1198 -1255 0
-1198 -1256 0
-1198 -1257 0
-1198 -1258 0
-1198 -1259 0
-1198 -1260 0
-1198 -1261 0
-1199 -1200 0
-1199 -1201 0
-1199 -1202 0
-1199 -1203 0
-1199 -1204 0
-1199 -1205 0
-1199 -1206 0
-1199 -1207 0
-1199 -1208 0
-1199 -1209 0
-1199 -1210 0
-1199 -1211 0
-1199 -1212 0
-1199 -1213 0
-1199 -1214 0
-1199 -1215 0
-1199 -1216 0
-1199 -1217 0
-1199 -1218 0
-1199 -1219 0
-1199 -1220 0
-1199 -1221 0
-1199 -1222 0
-1199 -1223 0
-1199 -1224 0
-1199 -1225 0
-1199 -1226 0
-1199 -1227 0
-1199 -1228 0
-1199 -1229 0
-1199 -1230 0
-1199 -1231 0
-1199 -1232 0
-1199 -1233 0
-1199 -1234 0
-1199 -1235 0
-1199 -1236 0
-1199 -1237 0
-1199 -1238 0
-1199 -1239 0
-1199 -1240 0
-1199 -1241 0
-1199 -1242 0
-1199 -1243 0
-1199 -1244 0
-1199 -1245 0
-1199 -1246 0
-1199 -1247 0
-1199 -1248 0
-1199 -1249 0
-1199 -1250 0
-1199 -1251 0
-1199 -1252 0
-1199 -1253 0
-1199 -1254 0
-1199 -1255 0
-1199 -1256 0
-1199 -1257 0
-1199 -1258 0
-1199 -1259 0
-1199 -1260 0
-1199 -1261 0
-1200 -1201 0
-1200 -1202 0
-1200 -1203 0
-1200 -1204 0
-1200 -1205 0
-1200 -1206 0
-1200 -1207 0
-1200 -1208 0
-1200 -1209 0
-1200 -1210 0
-1200 -1211 0
-1200 -1212 0
-1200 -1213 0
-1200 -1214 0
-1200 -1215 0
-1200 -1216 0
-1200 -1217 0
-1200 -1218 0
-1200 -1219 0
-1200 -1220 0
-1200 -1221 0
-1200 -1222 0
-1200 -1223 0
-1200 -1224 0
-1200 -1225 0
-1200 -1226 0
-1200 -1227 0
-1200 -1228 0
-1200 -1229 0
-1200 -1230 0
-1200 -1231 0
-1200 -1232 0
-1200 -1233 0
-1200 -1234 0
-1200 -1235 0
-1200 -1236 0
-1200 -1237 0
-1200 -1238 0
-1200 -1239 0
-1200 -1240 0
-1200 -1241 0
-1200 -1242 0
-1200 -1243 0
-1200 -1244 0
-1200 -1245 0
-1200 -1246 0
-1200 -1247 0
-1200 -1248 0
-1200 -1249 0
-1200 -1250 0
-1200 -1251 0
-1200 -1252 0
-1200 -1253 0
-1200 -1254 0
-1200 -1255 0
-1200 -1256 0
-1200 -1257 0
-1200 -1258 0
-1200 -1259 0
-1200 -1260 0
-1200 -1261 0
-1201 -1202 0
-1201 -1203 0
-1201 -1204 0
-1201 -1205 0
-1201 -1206 0
-1201 -1207 0
-1201 -1208 0
-1201 -1209 0
-1201 -1210 0
-1201 -1211 0
-1201 -1212 0
-1201 -1213 0
-1201 -1214 0
-1201 -1215 0
-1201 -1216 0
-1201 -1217 0
-1201 -1218 0
-1201 -1219 0
-1201 -1220 0
-1201 -1221 0
-1201 -1222 0
-1201 -1223 0
-1201 -1224 0
-1201 -1225 0
-1201 -1226 0
-1201 -1227 0
-1201 -1228 0
-1201 -1229 0
-1201 -1230 0
-1201 -1231 0
-1201 -1232 0
-1201 -1233 0
-1201 -1234 0
-1201 -1235 0
-1201 -1236 0
-1201 -1237 0
-1201 -1238 0
-1201 -1239 0
-1201 -1240 0
-1201 -1241 0
-1201 -1242 0
-1201 -1243 0
-1201 -1244 0
-1201 -1245 0
-1201 -1246 0
-1201 -1247 0
-1201 -1248 0
-1201 -1249 0
-1201 -1250 0
-1201 -1251 0
-1201 -1252 0
-1201 -1253 0
-1201 -1254 0
-1201 -1255 0
-1201 -1256 0
-1201 -1257 0
-1201 -1258 0
-1201 -1259 0
-1201 -1260 0
-1201 -1261 0
-1202 -1203 0
-1202 -1204 0
-1202 -1205 0
-1202 -1206 0
-1202 -1207 0
-1202 -1208 0
-1202 -1209 0
-1202 -1210 0
-1202 -1211 0
-1202 -1212 0
-1202 -1213 0
-1202 -1214 0
-1202 -1215 0
-1202 -1216 0
-1202 -1217 0
-1202 -1218 0
-1202 -1219 0
-1202 -1220 0
-1202 -1221 0
-1202 -1222 0
-1202 -1223 0
-1202 -1224 0
-1202 -1225 0
-1202 -1226 0
-1202 -1227 0
-1202 -1228 0
-1202 -1229 0
-1202 -1230 0
-1202 -1231 0
-1202 -1232 0
-1202 -1233 0
-1202 -1234 0
-1202 -1235 0
-1202 -1236 0
-1202 -1237 0
-1202 -1238 0
-1202 -1239 0
-1202 -1240 0
-1202 -1241 0
-1202 -1242 0
-1202 -1243 0
-1202 -1244 0
-1202 -1245 0
-1202 -1246 0
-1202 -1247 0
-1202 -1248 0
-1202 -1249 0
-1202 -1250 0
-1202 -1251 0
-1202 -1252 0
-1202 -1253 0
-1202 -1254 0
-1202 -1255 0
-1202 -1256 0
-1202 -1257 0
-1202 -1258 0
-1202 -1259 0
-1202 -1260 0
-1202 -1261 0
-1203 -1204 0
-1203 -1205 0
-1203 -1206 0
-1203 -1207 0
-1203 -1208 0
-1203 -1209 0
-1203 -1210 0
-1203 -1211 0
-1203 -1212 0
-1203 -1213 0
-1203 -1214 0
-1203 -1215 0
-1203 -1216 0
-1203 -1217 0
-1203 -1218 0
-1203 -1219 0
-1203 -1220 0
-1203 -1221 0
-1203 -1222 0
-1203 -1223 0
-1203 -1224 0
-1203 -1225 0
-1203 -1226 0
-1203 -1227 0
-1203 -1228 0
-1203 -1229 0
-1203 -1230 0
-1203 -1231 0
-1203 -1232 0
-1203 -1233 0
-1203 -1234 0
-1203 -1235 0
-1203 -1236 0
-1203 -1237 0
-1203 -1238 0
-1203 -1239 0
-1203 -1240 0
-1203 -1241 0
-1203 -1242 0
-1203 -1243 0
-1203 -1244 0
-1203 -1245 0
-1203 -1246 0
-1203 -1247 0
-1203 -1248 0
-1203 -1249 0
-1203 -1250 0
-1203 -1251 0
-1203 -1252 0
-1203 -1253 0
-1203 -1254 0
-1203 -1255 0
-1203 -1256 0
-1203 -1257 0
-1203 -1258 0
-1203 -1259 0
-1203 -1260 0
-1203 -1261 0
-1204 -1205 0
-1204 -1206 0
-1204 -1207 0
-1204 -1208 0
-1204 -1209 0
-1204 -1210 0
-1204 -1211 0
-1204 -1212 0
-1204 -1213 0
-1204 -1214 0
-1204 -1215 0
-1204 -1216 0
-1204 -1217 0
-1204 -1218 0
-1204 -1219 0
-1204 -1220 0
-1204 -1221 0
-1204 -1222 0
-1204 -1223 0
-1204 -1224 0
-1204 -1225 0
-1204 -1226 0
-1204 -1227 0
-1204 -1228 0
-1204 -1229 0
-1204 -1230 0
-1204 -1231 0
-1204 -1232 0
-1204 -1233 0
-1204 -1234 0
-1204 -1235 0
-1204 -1236 0
-1204 -1237 0
-1204 -1238 0
-1204 -1239 0
-1204 -1240 0
-1204 -1241 0
-1204 -1242 0
-1204 -1243 0
-1204 -1244 0
-1204 -1245 0
-1204 -1246 0
-1204 -1247 0
-1204 -1248 0
-1204 -1249 0
-1204 -1250 0
-1204 -1251 0
-1204 -1252 0
-1204 -1253 0
-1204 -1254 0
-1204 -1255 0
-1204 -1256 0
-1204 -1257 0
-1204 -1258 0
-1204 -1259 0
-1204 -1260 0
-1204 -1261 0
-1205 -1206 0
-1205 -1207 0
-1205 -1208 0
-1205 -1209 0
-1205 -1210 0
-1205 -1211 0
-1205 -1212 0
-1205 -1213 0
-1205 -1214 0
-1205 -1215 0
-1205 -1216 0
-1205 -1217 0
-1205 -1218 0
-1205 -1219 0
-1205 -1220 0
-1205 -1221 0
-1205 -1222 0
-1205 -1223 0
-1205 -1224 0
-1205 -1225 0
-1205 -1226 0
-1205 -1227 0
-1205 -1228 0
-1205 -1229 0
-1205 -1230 0
-1205 -1231 0
-1205 -1232 0
-1205 -1233 0
-1205 -1234 0
-1205 -1235 0
-1205 -1236 0
-1205 -1237 0
-1205 -1238 0
-1205 -1239 0
-1205 -1240 0
-1205 -1241 0
-1205 -1242 0
-1205 -1243 0
-1205 -1244 0
-1205 -1245 0
-1205 -1246 0
-1205 -1247 0
-1205 -1248 0
-1205 -1249 0
-1205 -1250 0
-1205 -1251 0
-1205 -1252 0
-1205 -1253 0
-1205 -1254 0
-1205 -1255 0
-1205 -1256 0
-1205 -1257 0
-1205 -1258 0
-1205 -1259 0
-1205 -1260 0
-1205 -1261 0
-1206 -1207 0
-1206 -1208 0
-1206 -1209 0
-1206 -1210 0
-1206 -1211 0
-1206 -1212 0
-1206 -1213 0
-1206 -1214 0
-1206 -1215 0
-1206 -1216 0
-1206 -1217 0
-1206 -1218 0
-1206 -1219 0
-1206 -1220 0
-1206 -1221 0
-1206 -1222 0
-1206 -1223 0
-1206 -1224 0
-1206 -1225 0
-1206 -1226 0
-1206 -1227 0
-1206 -1228 0
-1206 -1229 0
-1206 -1230 0
-1206 -1231 0
-1206 -1232 0
-1206 -1233 0
-1206 -1234 0
-1206 -1235 0
-1206 -1236 0
-1206 -1237 0
-1206 -1238 0
-1206 -1239 0
-1206 -1240 0
-1206 -1241 0
-1206 -1242 0
-1206 -1243 0
-1206 -1244 0
-1206 -1245 0
-1206 -1246 0
-1206 -1247 0
-1206 -1248 0
-1206 -1249 0
-1206 -1250 0
-1206 -1251 0
-1206 -1252 0
-1206 -1253 0
-1206 -1254 0
-1206 -1255 0
-1206 -1256 0
-1206 -1257 0
-1206 -1258 0
-1206 -1259 0
-1206 -1260 0
-1206 -1261 0
-1207 -1208 0
-1207 -1209 0
-1207 -1210 0
-1207 -1211 0
-1207 -1212 0
-1207 -1213 0
-1207 -1214 0
-1207 -1215 0
-1207 -1216 0
-1207 -1217 0
-1207 -1218 0
-1207 -1219 0
-1207 -1220 0
-1207 -1221 0
-1207 -1222 0
-1207 -1223 0
-1207 -1224 0
-1207 -1225 0
-1207 -1226 0
-1207 -1227 0
-1207 -1228 0
-1207 -1229 0
-1207 -1230 0
-1207 -1231 0
-1207 -1232 0
-1207 -1233 0
-1207 -1234 0
-1207 -1235 0
-1207 -1236 0
-1207 -1237 0
-1207 -1238 0
-1207 -1239 0
-1207 -1240 0
-1207 -1241 0
-1207 -1242 0
-1207 -1243 0
-1207 -1244 0
-1207 -1245 0
-1207 -1246 0
-1207 -1247 0
-1207 -1248 0
-1207 -1249 0
-1207 -1250 0
-1207 -1251 0
-1207 -1252 0
-1207 -1253 0
-1207 -1254 0
-1207 -1255 0
-1207 -1256 0
-1207 -1257 0
-1207 -1258 0
-1207 -1259 0
-1207 -1260 0
-1207 -1261 0
-1208 -1209 0
-1208 -1210 0
-1208 -1211 0
-1208 -1212 0
-1208 -1213 0
-1208 -1214 0
-1208 -1215 0
-1208 -1216 0
-1208 -1217 0
-1208 -1218 0
-1208 -1219 0
-1208 -1220 0
-1208 -1221 0
-1208 -1222 0
-1208 -1223 0
-1208 -1224 0
-1208 -1225 0
-1208 -1226 0
-1208 -1227 0
-1208 -1228 0
-1208 -1229 0
-1208 -1230 0
-1208 -1231 0
-1208 -1232 0
-1208 -1233 0
-1208 -1234 0
-1208 -1235 0
-1208 -1236 0
-1208 -1237 0
-1208 -1238 0
-1208 -1239 0
-1208 -1240 0
-1208 -1241 0
-1208 -1242 0
-1208 -1243 0
-1208 -1244 0
-1208 -1245 0
-1208 -1246 0
-1208 -1247 0
-1208 -1248 0
-1208 -1249 0
-1208 -1250 0
-1208 -1251 0
-1208 -1252 0
-1208 -1253 0
-1208 -1254 0
-1208 -1255 0
-1208 -1256 0
-1208 -1257 0
-1208 -1258 0
-1208 -1259 0
-1208 -1260 0
-1208 -1261 0
-1209 -1210 0
-1209 -1211 0
-1209 -1212 0
-1209 -1213 0
-1209 -1214 0
-1209 -1215 0
-1209 -1216 0
-1209 -1217 0
-1209 -1218 0
-1209 -1219 0
-1209 -1220 0
-1209 -1221 0
-1209 -1222 0
-1209 -1223 0
-1209 -1224 0
-1209 -1225 0
-1209 -1226 0
-1209 -1227 0
-1209 -1228 0
-1209 -1229 0
-1209 -1230 0
-1209 -1231 0
-1209 -1232 0
-1209 -1233 0
-1209 -1234 0
-1209 -1235 0
-1209 -1236 0
-1209 -1237 0
-1209 -1238 0
-1209 -1239 0
-1209 -1240 0
-1209 -1241 0
-1209 -1242 0
-1209 -1243 0
-1209 -1244 0
-1209 -1245 0
-1209 -1246 0
-1209 -1247 0
-1209 -1248 0
-1209 -1249 0
-1209 -1250 0
-1209 -1251 0
-1209 -1252 0
-1209 -1253 0
-1209 -1254 0
-1209 -1255 0
-1209 -1256 0
-1209 -1257 0
-1209 -1258 0
-1209 -1259 0
-1209 -1260 0
-1209 -1261 0
-1210 -1211 0
-1210 -1212 0
-1210 -1213 0
-1210 -1214 0
-1210 -1215 0
-1210 -1216 0
-1210 -1217 0
-1210 -1218 0
-1210 -1219 0
-1210 -1220 0
-1210 -1221 0
-1210 -1222 0
-1210 -1223 0
-1210 -1224 0
-1210 -1225 0
-1210 -1226 0
-1210 -1227 0
-1210 -1228 0
-1210 -1229 0
-1210 -1230 0
-1210 -1231 0
-1210 -1232 0
-1210 -1233 0
-1210 -1234 0
-1210 -1235 0
-1210 -1236 0
-1210 -1237 0
-1210 -1238 0
-1210 -1239 0
-1210 -1240 0
-1210 -1241 0
-1210 -1242 0
-1210 -1243 0
-1210 -1244 0
-1210 -1245 0
-1210 -1246 0
-1210 -1247 0
-1210 -1248 0
-1210 -1249 0
-1210 -1250 0
-1210 -1251 0
-1210 -1252 0
-1210 -1253 0
-1210 -1254 0
-1210 -1255 0
-1210 -1256 0
-1210 -1257 0
-1210 -1258 0
-1210 -1259 0
-1210 -1260 0
-1210 -1261 0
-1211 -1212 0
-1211 -1213 0
-1211 -1214 0
-1211 -1215 0
-1211 -1216 0
-1211 -1217 0
-1211 -1218 0
-1211 -1219 0
-1211 -1220 0
-1211 -1221 0
-1211 -1222 0
-1211 -1223 0
-1211 -1224 0
-1211 -1225 0
-1211 -1226 0
-1211 -1227 0
-1211 -1228 0
-1211 -1229 0
-1211 -1230 0
-1211 -1231 0
-1211 -1232 0
-1211 -1233 0
-1211 -1234 0
-1211 -1235 0
-1211 -1236 0
-1211 -1237 0
-1211 -1238 0
-1211 -1239 0
-1211 -1240 0
-1211 -1241 0
-1211 -1242 0
-1211 -1243 0
-1211 -1244 0
-1211 -1245 0
-1211 -1246 0
-1211 -1247 0
-1211 -1248 0
-1211 -1249 0
-1211 -1250 0
-1211 -1251 0
-1211 -1252 0
-1211 -1253 0
-1211 -1254 0
-1211 -1255 0
-1211 -1256 0
-1211 -1257 0
-1211 -1258 0
-1211 -1259 0
-1211 -1260 0
-1211 -1261 0
-1212 -1213 0
-1212 -1214 0
-1212 -1215 0
-1212 -1216 0
-1212 -1217 0
-1212 -1218 0
-1212 -1219 0
-1212 -1220 0
-1212 -1221 0
-1212 -1222 0
-1212 -1223 0
-1212 -1224 0
-1212 -1225 0
-1212 -1226 0
-1212 -1227 0
-1212 -1228 0
-1212 -1229 0
-1212 -1230 0
-1212 -1231 0
-1212 -1232 0
-1212 -1233 0
-1212 -1234 0
-1212 -1235 0
-1212 -1236 0
-1212 -1237 0
-1212 -1238 0
-1212 -1239 0
-1212 -1240 0
-1212 -1241 0
-1212 -1242 0
-1212 -1243 0
-1212 -1244 0
-1212 -1245 0
-1212 -1246 0
-1212 -1247 0
-1212 -1248 0
-1212 -1249 0
-1212 -1250 0
-1212 -1251 0
-1212 -1252 0
-1212 -1253 0
-1212 -1254 0
-1212 -1255 0
-1212 -1256 0
-1212 -1257 0
-1212 -1258 0
-1212 -1259 0
-1212 -1260 0
-1212 -1261 0
-1213 -1214 0
-1213 -1215 0
-1213 -1216 0
-1213 -1217 0
-1213 -1218 0
-1213 -1219 0
-1213 -1220 0
-1213 -1221 0
-1213 -1222 0
-1213 -1223 0
-1213 -1224 0
-1213 -1225 0
-1213 -1226 0
-1213 -1227 0
-1213 -1228 0
-1213 -1229 0
-1213 -1230 0
-1213 -1231 0
-1213 -1232 0
-1213 -1233 0
-1213 -1234 0
-1213 -1235 0
-1213 -1236 0
-1213 -1237 0
-1213 -1238 0
-1213 -1239 0
-1213 -1240 0
-1213 -1241 0
-1213 -1242 0
-1213 -1243 0
-1213 -1244 0
-1213 -1245 0
-1213 -1246 0
-1213 -1247 0
-1213 -1248 0
-1213 -1249 0
-1213 -1250 0
-1213 -1251 0
-1213 -1252 0
-1213 -1253 0
-1213 -1254 0
-1213 -1255 0
-1213 -1256 0
-1213 -1257 0
-1213 -1258 0
-1213 -1259 0
-1213 -1260 0
-1213 -1261 0
-1214 -1215 0
-1214 -1216 0
-1214 -1217 0
-1214 -1218 0
-1214 -1219 0
-1214 -1220 0
-1214 -1221 0
-1214 -1222 0
-1214 -1223 0
-1214 -1224 0
-1214 -1225 0
-1214 -1226 0
-1214 -1227 0
-1214 -1228 0
-1214 -1229 0
-1214 -1230 0
-1214 -1231 0
-1214 -1232 0
-1214 -1233 0
-1214 -1234 0
-1214 -1235 0
-1214 -1236 0
-1214 -1237 0
-1214 -1238 0
-1214 -1239 0
-1214 -1240 0
-1214 -1241 0
-1214 -1242 0
-1214 -1243 0
-1214 -1244 0
-1214 -1245 0
-1214 -1246 0
-1214 -1247 0
-1214 -1248 0
-1214 -1249 0
-1214 -1250 0
-1214 -1251 0
-1214 -1252 0
-1214 -1253 0
-1214 -1254 0
-1214 -1255 0
-1214 -1256 0
-1214 -1257 0
-1214 -1258 0
-1214 -1259 0
-1214 -1260 0
-1214 -1261 0
-1215 -1216 0
-1215 -1217 0
-1215 -1218 0
-1215 -1219 0
-1215 -1220 0
-1215 -1221 0
-1215 -1222 0
-1215 -1223 0
-1215 -1224 0
-1215 -1225 0
-1215 -1226 0
-1215 -1227 0
-1215 -1228 0
-1215 -1229 0
-1215 -1230 0
-1215 -1231 0
-1215 -1232 0
-1215 -1233 0
-1215 -1234 0
-1215 -1235 0
-1215 -1236 0
-1215 -1237 0
-1215 -1238 0
-1215 -1239 0
-1215 -1240 0
-1215 -1241 0
-1215 -1242 0
-1215 -1243 0
-1215 -1244 0
-1215 -1245 0
-1215 -1246 0
-1215 -1247 0
-1215 -1248 0
-1215 -1249 0
-1215 -1250 0
-1215 -1251 0
-1215 -1252 0
-1215 -1253 0
-1215 -1254 0
-1215 -1255 0
-1215 -1256 0
-1215 -1257 0
-1215 -1258 0
-1215 -1259 0
-1215 -1260 0
-1215 -1261 0
-1216 -1217 0
-1216 -1218 0
-1216 -1219 0
-1216 -1220 0
-1216 -1221 0
-1216 -1222 0
-1216 -1223 0
-1216 -1224 0
-1216 -1225 0
-1216 -1226 0
-1216 -1227 0
-1216 -1228 0
-1216 -1229 0
-1216 -1230 0
-1216 -1231 0
-1216 -1232 0
-1216 -1233 0
-1216 -1234 0
-1216 -1235 0
-1216 -1236 0
-1216 -1237 0
-1216 -1238 0
-1216 -1239 0
-1216 -1240 0
-1216 -1241 0
-1216 -1242 0
-1216 -1243 0
-1216 -1244 0
-1216 -1245 0
-1216 -1246 0
-1216 -1247 0
-1216 -1248 0
-1216 -1249 0
-1216 -1250 0
-1216 -1251 0
-1216 -1252 0
-1216 -1253 0
-1216 -1254 0
-1216 -1255 0
-1216 -1256 0
-1216 -1257 0
-1216 -1258 0
-1216 -1259 0
-1216 -1260 0
-1216 -1261 0
-1217 -1218 0
-1217 -1219 0
-1217 -1220 0
-1217 -1221 0
-1217 -1222 0
-1217 -1223 0
-1217 -1224 0
-1217 -1225 0
-1217 -1226 0
-1217 -1227 0
-1217 -1228 0
-1217 -1229 0
-1217 -1230 0
-1217 -1231 0
-1217 -1232 0
-1217 -1233 0
-1217 -1234 0
-1217 -1235 0
-1217 -1236 0
-1217 -1237 0
-1217 -1238 0
-1217 -1239 0
-1217 -1240 0
-1217 -1241 0
-1217 -1242 0
-1217 -1243 0
-1217 -1244 0
-1217 -1245 0
-1217 -1246 0
-1217 -1247 0
-1217 -1248 0
-1217 -1249 0
-1217 -1250 0
-1217 -1251 0
-1217 -1252 0
-1217 -1253 0
-1217 -1254 0
-1217 -1255 0
-1217 -1256 0
-1217 -1257 0
-1217 -1258 0
-1217 -1259 0
-1217 -1260 0
-1217 -1261 0
-1218 -1219 0
-1218 -1220 0
-1218 -1221 0
-1218 -1222 0
-1218 -1223 0
-1218 -1224 0
-1218 -1225 0
-1218 -1226 0
-1218 -1227 0
-1218 -1228 0
-1218 -1229 0
-1218 -1230 0
-1218 -1231 0
-1218 -1232 0
-1218 -1233 0
-1218 -1234 0
-1218 -1235 0
-1218 -1236 0
-1218 -1237 0
-1218 -1238 0
-1218 -1239 0
-1218 -1240 0
-1218 -1241 0
-1218 -1242 0
-1218 -1243 0
-1218 -1244 0
-1218 -1245 0
-1218 -1246 0
-1218 -1247 0
-1218 -1248 0
-1218 -1249 0
-1218 -1250 0
-1218 -1251 0
-1218 -1252 0
-1218 -1253 0
-1218 -1254 0
-1218 -1255 0
-1218 -1256 0
-1218 -1257 0
-1218 -1258 0
-1218 -1259 0
-1218 -1260 0
-1218 -1261 0
-1219 -1220 0
-1219 -1221 0
-1219 -1222 0
-1219 -1223 0
-1219 -1224 0
-1219 -1225 0
-1219 -1226 0
-1219 -1227 0
-1219 -1228 0
-1219 -1229 0
-1219 -1230 0
-1219 -1231 0
-1219 -1232 0
-1219 -1233 0
-1219 -1234 0
-1219 -1235 0
-1219 -1236 0
-1219 -1237 0
-1219 -1238 0
-1219 -1239 0
-1219 -1240 0
-1219 -1241 0
-1219 -1242 0
-1219 -1243 0
-1219 -1244 0
-1219 -1245 0
-1219 -1246 0
-1219 -1247 0
-1219 -1248 0
-1219 -1249 0
-1219 -1250 0
-1219 -1251 0
-1219 -1252 0
-1219 -1253 0
-1219 -1254 0
-1219 -1255 0
-1219 -1256 0
-1219 -1257 0
-1219 -1258 0
-1219 -1259 0
-1219 -1260 0
-1219 -1261 0
-1220 -1221 0
-1220 -1222 0
-1220 -1223 0
-1220 -1224 0
-1220 -1225 0
-1220 -1226 0
-1220 -1227 0
-1220 -1228 0
-1220 -1229 0
-1220 -1230 0
-1220 -1231 0
-1220 -1232 0
-1220 -1233 0
-1220 -1234 0
-1220 -1235 0
-1220 -1236 0
-1220 -1237 0
-1220 -1238 0
-1220 -1239 0
-1220 -1240 0
-1220 -1241 0
-1220 -1242 0
-1220 -1243 0
-1220 -1244 0
-1220 -1245 0
-1220 -1246 0
-1220 -1247 0
-1220 -1248 0
-1220 -1249 0
-1220 -1250 0
-1220 -1251 0
-1220 -1252 0
-1220 -1253 0
-1220 -1254 0
-1220 -1255 0
-1220 -1256 0
-1220 -1257 0
-1220 -1258 0
-1220 -1259 0
-1220 -1260 0
-1220 -1261 0
-1221 -1222 0
-1221 -1223 0
-1221 -1224 0
-1221 -1225 0
-1221 -1226 0
-1221 -1227 0
-1221 -1228 0
-1221 -1229 0
-1221 -1230 0
-1221 -1231 0
-1221 -1232 0
-1221 -1233 0
-1221 -1234 0
-1221 -1235 0
-1221 -1236 0
-1221 -1237 0
-1221 -1238 0
-1221 -1239 0
-1221 -1240 0
-1221 -1241 0
-1221 -1242 0
-1221 -1243 0
-1221 -1244 0
-1221 -1245 0
-1221 -1246 0
-1221 -1247 0
-1221 -1248 0
-1221 -1249 0
-1221 -1250 0
-1221 -1251 0
-1221 -1252 0
-1221 -1253 0
-1221 -1254 0
-1221 -1255 0
-1221 -1256 0
-1221 -1257 0
-1221 -1258 0
-1221 -1259 0
-1221 -1260 0
-1221 -1261 0
-1222 -1223 0
-1222 -1224 0
-1222 -1225 0
-1222 -1226 0
-1222 -1227 0
-1222 -1228 0
-1222 -1229 0
-1222 -1230 0
-1222 -1231 0
-1222 -1232 0
-1222 -1233 0
-1222 -1234 0
-1222 -1235 0
-1222 -1236 0
-1222 -1237 0
-1222 -1238 0
-1222 -1239 0
-1222 -1240 0
-1222 -1241 0
-1222 -1242 0
-1222 -1243 0
-1222 -1244 0
-1222 -1245 0
-1222 -1246 0
-1222 -1247 0
-1222 -1248 0
-1222 -1249 0
-1222 -1250 0
-1222 -1251 0
-1222 -1252 0
-1222 -1253 0
-1222 -1254 0
-1222 -1255 0
-1222 -1256 0
-1222 -1257 0
-1222 -1258 0
-1222 -1259 0
-1222 -1260 0
-1222 -1261 0
-1223 -1224 0
-1223 -1225 0
-1223 -1226 0
-1223 -1227 0
-1223 -1228 0
-1223 -1229 0
-1223 -1230 0
-1223 -1231 0
-1223 -1232 0
-1223 -1233 0
-1223 -1234 0
-1223 -1235 0
-1223 -1236 0
-1223 -1237 0
-1223 -1238 0
-1223 -1239 0
-1223 -1240 0
-1223 -1241 0
-1223 -1242 0
-1223 -1243 0
-1223 -1244 0
-1223 -1245 0
-1223 -1246 0
-1223 -1247 0
-1223 -1248 0
-1223 -1249 0
-1223 -1250 0
-1223 -1251 0
-1223 -1252 0
-1223 -1253 0
-1223 -1254 0
-1223 -1255 0
-1223 -1256 0
-1223 -1257 0
-1223 -1258 0
-1223 -1259 0
-1223 -1260 0
-1223 -1261 0
-1224 -1225 0
-1224 -1226 0
-1224 -1227 0
-1224 -1228 0
-1224 -1229 0
-1224 -1230 0
-1224 -1231 0
-1224 -1232 0
-1224 -1233 0
-1224 -1234 0
-1224 -1235 0
-1224 -1236 0
-1224 -1237 0
-1224 -1238 0
-1224 -1239 0
-1224 -1240 0
-1224 -1241 0
-1224 -1242 0
-1224 -1243 0
-1224 -1244 0
-1224 -1245 0
-1224 -1246 0
-1224 -1247 0
-1224 -1248 0
-1224 -1249 0
-1224 -1250 0
-1224 -1251 0
-1224 -1252 0
-1224 -1253 0
-1224 -1254 0
-1224 -1255 0
-1224 -1256 0
-1224 -1257 0
-1224 -1258 0
-1224 -1259 0
-1224 -1260 0
-1224 -1261 0
-1225 -1226 0
-1225 -1227 0
-1225 -1228 0
-1225 -1229 0
-1225 -1230 0
-1225 -1231 0
-1225 -1232 0
-1225 -1233 0
-1225 -1234 0
-1225 -1235 0
-1225 -1236 0
-1225 -1237 0
-1225 -1238 0
-1225 -1239 0
-1225 -1240 0
-1225 -1241 0
-1225 -1242 0
-1225 -1243 0
-1225 -1244 0
-1225 -1245 0
-1225 -1246 0
-1225 -1247 0
-1225 -1248 0
-1225 -1249 0
-1225 -1250 0
-1225 -1251 0
-1225 -1252 0
-1225 -1253 0
-1225 -1254 0
-1225 -1255 0
-1225 -1256 0
-1225 -1257 0
-1225 -1258 0
-1225 -1259 0
-1225 -1260 0
-1225 -1261 0
-1226 -1227 0
-1226 -1228 0
-1226 -1229 0
-1226 -1230 0
-1226 -1231 0
-1226 -1232 0
-1226 -1233 0
-1226 -1234 0
-1226 -1235 0
-1226 -1236 0
-1226 -1237 0
-1226 -1238 0
-1226 -1239 0
-1226 -1240 0
-1226 -1241 0
-1226 -1242 0
-1226 -1243 0
-1226 -1244 0
-1226 -1245 0
-1226 -1246 0
-1226 -1247 0
-1226 -1248 0
-1226 -1249 0
-1226 -1250 0
-1226 -1251 0
-1226 -1252 0
-1226 -1253 0
-1226 -1254 0
-1226 -1255 0
-1226 -1256 0
-1226 -1257 0
-1226 -1258 0
-1226 -1259 0
-1226 -1260 0
-1226 -1261 0
-1227 -1228 0
-1227 -1229 0
-1227 -1230 0
-1227 -1231 0
-1227 -1232 0
-1227 -1233 0
-1227 -1234 0
-1227 -1235 0
-1227 -1236 0
-1227 -1237 0
-1227 -1238 0
-1227 -1239 0
-1227 -1240 0
-1227 -1241 0
-1227 -1242 0
-1227 -1243 0
-1227 -1244 0
-1227 -1245 0
-1227 -1246 0
-1227 -1247 0
-1227 -1248 0
-1227 -1249 0
-1227 -1250 0
-1227 -1251 0
-1227 -1252 0
-1227 -1253 0
-1227 -1254 0
-1227 -1255 0
-1227 -1256 0
-1227 -1257 0
-1227 -1258 0
-1227 -1259 0
-1227 -1260 0
-1227 -1261 0
-1228 -1229 0
-1228 -1230 0
-1228 -1231 0
-1228 -1232 0
-1228 -1233 0
-1228 -1234 0
-1228 -1235 0
-1228 -1236 0
-1228 -1237 0
-1228 -1238 0
-1228 -1239 0
-1228 -1240 0
-1228 -1241 0
-1228 -1242 0
-1228 -1243 0
-1228 -1244 0
-1228 -1245 0
-1228 -1246 0
-1228 -1247 0
-1228 -1248 0
-1228 -1249 0
-1228 -1250 0
-1228 -1251 0
-1228 -1252 0
-1228 -1253 0
-1228 -1254 0
-1228 -1255 0
-1228 -1256 0
-1228 -1257 0
-1228 -1258 0
-1228 -1259 0
-1228 -1260 0
-1228 -1261 0
-1229 -1230 0
-1229 -1231 0
-1229 -1232 0
-1229 -1233 0
-1229 -1234 0
-1229 -1235 0
-1229 -1236 0
-1229 -1237 0
-1229 -1238 0
-1229 -1239 0
-1229 -1240 0
-1229 -1241 0
-1229 -1242 0
-1229 -1243 0
-1229 -1244 0
-1229 -1245 0
-1229 -1246 0
-1229 -1247 0
-1229 -1248 0
-1229 -1249 0
-1229 -1250 0
-1229 -1251 0
-1229 -1252 0
-1229 -1253 0
-1229 -1254 0
-1229 -1255 0
-1229 -1256 0
-1229 -1257 0
-1229 -1258 0
-1229 -1259 0
-1229 -1260 0
-1229 -1261 0
-1230 -1231 0
-1230 -1232 0
-1230 -1233 0
-1230 -1234 0
-1230 -1235 0
-1230 -1236 0
-1230 -1237 0
-1230 -1238 0
-1230 -1239 0
-1230 -1240 0
-1230 -1241 0
-1230 -1242 0
-1230 -1243 0
-1230 -1244 0
-1230 -1245 0
-1230 -1246 0
-1230 -1247 0
-1230 -1248 0
-1230 -1249 0
-1230 -1250 0
-1230 -1251 0
-1230 -1252 0
-1230 -1253 0
-1230 -1254 0
-1230 -1255 0
-1230 -1256 0
-1230 -1257 0
-1230 -1258 0
-1230 -1259 0
-1230 -1260 0
-1230 -1261 0
-1231 -1232 0
-1231 -1233 0
-1231 -1234 0
-1231 -1235 0
-1231 -1236 0
-1231 -1237 0
-1231 -1238 0
-1231 -1239 0
-1231 -1240 0
-1231 -1241 0
-1231 -1242 0
-1231 -1243 0
-1231 -1244 0
-1231 -1245 0
-1231 -1246 0
-1231 -1247 0
-1231 -1248 0
-1231 -1249 0
-1231 -1250 0
-1231 -1251 0
-1231 -1252 0
-1231 -1253 0
-1231 -1254 0
-1231 -1255 0
-1231 -1256 0
-1231 -1257 0
-1231 -1258 0
-1231 -1259 0
-1231 -1260 0
-1231 -1261 0
-1232 -1233 0
-1232 -1234 0
-1232 -1235 0
-1232 -1236 0
-1232 -1237 0
-1232 -1238 0
-1232 -1239 0
-1232 -1240 0
-1232 -1241 0
-1232 -1242 0
-1232 -1243 0
-1232 -1244 0
-1232 -1245 0
-1232 -1246 0
-1232 -1247 0
-1232 -1248 0
-1232 -1249 0
-1232 -1250 0
-1232 -1251 0
-1232 -1252 0
-1232 -1253 0
-1232 -1254 0
-1232 -1255 0
-1232 -1256 0
-1232 -1257 0
-1232 -1258 0
-1232 -1259 0
-1232 -1260 0
-1232 -1261 0
-1233 -1234 0
-1233 -1235 0
-1233 -1236 0
-1233 -1237 0
-1233 -1238 0
-1233 -1239 0
-1233 -1240 0
-1233 -1241 0
-1233 -1242 0
-1233 -1243 0
-1233 -1244 0
-1233 -1245 0
-1233 -1246 0
-1233 -1247 0
-1233 -1248 0
-1233 -1249 0
-1233 -1250 0
-1233 -1251 0
-1233 -1252 0
-1233 -1253 0
-1233 -1254 0
-1233 -1255 0
-1233 -1256 0
-1233 -1257 0
-1233 -1258 0
-1233 -1259 0
-1233 -1260 0
-1233 -1261 0
-1234 -1235 0
-1234 -1236 0
-1234 -1237 0
-1234 -1238 0
-1234 -1239 0
-1234 -1240 0
-1234 -1241 0
-1234 -1242 0
-1234 -1243 0
-1234 -1244 0
-1234 -1245 0
-1234 -1246 0
-1234 -1247 0
-1234 -1248 0
-1234 -1249 0
-1234 -1250 0
-1234 -1251 0
-1234 -1252 0
-1234 -1253 0
-1234 -1254 0
-1234 -1255 0
-1234 -1256 0
-1234 -1257 0
-1234 -1258 0
-1234 -1259 0
-1234 -1260 0
-1234 -1261 0
-1235 -1236 0
-1235 -1237 0
-1235 -1238 0
-1235 -1239 0
-1235 -1240 0
-1235 -1241 0
-1235 -1242 0
-1235 -1243 0
-1235 -1244 0
-1235 -1245 0
-1235 -1246 0
-1235 -1247 0
-1235 -1248 0
-1235 -1249 0
-1235 -1250 0
-1235 -1251 0
-1235 -1252 0
-1235 -1253 0
-1235 -1254 0
-1235 -1255 0
-1235 -1256 0
-1235 -1257 0
-1235 -1258 0
-1235 -1259 0
-1235 -1260 0
-1235 -1261 0
-1236 -1237 0
-1236 -1238 0
-1236 -1239 0
-1236 -1240 0
-1236 -1241 0
-1236 -1242 0
-1236 -1243 0
-1236 -1244 0
-1236 -1245 0
-1236 -1246 0
-1236 -1247 0
-1236 -1248 0
-1236 -1249 0
-1236 -1250 0
-1236 -1251 0
-1236 -1252 0
-1236 -1253 0
-1236 -1254 0
-1236 -1255 0
-1236 -1256 0
-1236 -1257 0
-1236 -1258 0
-1236 -1259 0
-1236 -1260 0
-1236 -1261 0
-1237 -1238 0
-1237 -1239 0
-1237 -1240 0
-1237 -1241 0
-1237 -1242 0
-1237 -1243 0
-1237 -1244 0
-1237 -1245 0
-1237 -1246 0
-1237 -1247 0
-1237 -1248 0
-1237 -1249 0
-1237 -1250 0
-1237 -1251 0
-1237 -1252 0
-1237 -1253 0
-1237 -1254 0
-1237 -1255 0
-1237 -1256 0
-1237 -1257 0
-1237 -1258 0
-1237 -1259 0
-1237 -1260 0
-1237 -1261 0
-1238 -1239 0
-1238 -1240 0
-1238 -1241 0
-1238 -1242 0
-1238 -1243 0
-1238 -1244 0
-1238 -1245 0
-1238 -1246 0
-1238 -1247 0
-1238 -1248 0
-1238 -1249 0
-1238 -1250 0
-1238 -1251 0
-1238 -1252 0
-1238 -1253 0
-1238 -1254 0
-1238 -1255 0
-1238 -1256 0
-1238 -1257 0
-1238 -1258 0
-1238 -1259 0
-1238 -1260 0
-1238 -1261 0
-1239 -1240 0
-1239 -1241 0
-1239 -1242 0
-1239 -1243 0
-1239 -1244 0
-1239 -1245 0
-1239 -1246 0
-1239 -1247 0
-1239 -1248 0
-1239 -1249 0
-1239 -1250 0
-1239 -1251 0
-1239 -1252 0
-1239 -1253 0
-1239 -1254 0
-1239 -1255 0
-1239 -1256 0
-1239 -1257 0
-1239 -1258 0
-1239 -1259 0
-1239 -1260 0
-1239 -1261 0
-1240 -1241 0
-1240 -1242 0
-1240 -1243 0
-1240 -1244 0
-1240 -1245 0
-1240 -1246 0
-1240 -1247 0
-1240 -1248 0
-1240 -1249 0
-1240 -1250 0
-1240 -1251 0
-1240 -1252 0
-1240 -1253 0
-1240 -1254 0
-1240 -1255 0
-1240 -1256 0
-1240 -1257 0
-1240 -1258 0
-1240 -1259 0
-1240 -1260 0
-1240 -1261 0
-1241 -1242 0
-1241 -1243 0
-1241 -1244 0
-1241 -1245 0
-1241 -1246 0
-1241 -1247 0
-1241 -1248 0
-1241 -1249 0
-1241 -1250 0
-1241 -1251 0
-1241 -1252 0
-1241 -1253 0
-1241 -1254 0
-1241 -1255 0
-1241 -1256 0
-1241 -1257 0
-1241 -1258 0
-1241 -1259 0
-1241 -1260 0
-1241 -1261 0
-1242 -1243 0
-1242 -1244 0
-1242 -1245 0
-1242 -1246 0
-1242 -1247 0
-1242 -1248 0
-1242 -1249 0
-1242 -1250 0
-1242 -1251 0
-1242 -1252 0
-1242 -1253 0
-1242 -1254 0
-1242 -1255 0
-1242 -1256 0
-1242 -1257 0
-1242 -1258 0
-1242 -1259 0
-1242 -1260 0
-1242 -1261 0
-1243 -1244 0
-1243 -1245 0
-1243 -1246 0
-1243 -1247 0
-1243 -1248 0
-1243 -1249 0
-1243 -1250 0
-1243 -1251 0
-1243 -1252 0
-1243 -1253 0
-1243 -1254 0
-1243 -1255 0
-1243 -1256 0
-1243 -1257 0
-1243 -1258 0
-1243 -1259 0
-1243 -1260 0
-1243 -1261 0
-1244 -1245 0
-1244 -1246 0
-1244 -1247 0
-1244 -1248 0
-1244 -1249 0
-1244 -1250 0
-1244 -1251 0
-1244 -1252 0
-1244 -1253 0
-1244 -1254 0
-1244 -1255 0
-1244 -1256 0
-1244 -1257 0
-1244 -1258 0
-1244 -1259 0
-1244 -1260 0
-1244 -1261 0
-1245 -1246 0
-1245 -1247 0
-1245 -1248 0
-1245 -1249 0
-1245 -1250 0
-1245 -1251 0
-1245 -1252 0
-1245 -1253 0
-1245 -1254 0
-1245 -1255 0
-1245 -1256 0
-1245 -1257 0
-1245 -1258 0
-1245 -1259 0
-1245 -1260 0
-1245 -1261 0
-1246 -1247 0
-1246 -1248 0
-1246 -1249 0
-1246 -1250 0
-1246 -1251 0
-1246 -1252 0
-1246 -1253 0
-1246 -1254 0
-1246 -1255 0
-1246 -1256 0
-1246 -1257 0
-1246 -1258 0
-1246 -1259 0
-1246 -1260 0
-1246 -1261 0
-1247 -1248 0
-1247 -1249 0
-1247 -1250 0
-1247 -1251 0
-1247 -1252 0
-1247 -1253 0
-1247 -1254 0
-1247 -1255 0
-1247 -1256 0
-1247 -1257 0
-1247 -1258 0
-1247 -1259 0
-1247 -1260 0
-1247 -1261 0
-1248 -1249 0
-1248 -1250 0
-1248 -1251 0
-1248 -1252 0
-1248 -1253 0
-1248 -1254 0
-1248 -1255 0
-1248 -1256 0
-1248 -1257 0
-1248 -1258 0
-1248 -1259 0
-1248 -1260 0
-1248 -1261 0
-1249 -1250 0
-1249 -1251 0
-1249 -1252 0
-1249 -1253 0
-1249 -1254 0
-1249 -1255 0
-1249 -1256 0
-1249 -1257 0
-1249 -1258 0
-1249 -1259 0
-1249 -1260 0
-1249 -1261 0
-1250 -1251 0
-1250 -1252 0
-1250 -1253 0
-1250 -1254 0
-1250 -1255 0
-1250 -1256 0
-1250 -1257 0
-1250 -1258 0
-1250 -1259 0
-1250 -1260 0
-1250 -1261 0
-1251 -1252 0
-1251 -1253 0
-1251 -1254 0
-1251 -1255 0
-1251 -1256 0
-1251 -1257 0
-1251 -1258 0
-1251 -1259 0
-1251 -1260 0
-1251 -1261 0
-1252 -1253 0
-1252 -1254 0
-1252 -1255 0
-1252 -1256 0
-1252 -1257 0
-1252 -1258 0
-1252 -1259 0
-1252 -1260 0
-1252 -1261 0
-1253 -1254 0
-1253 -1255 0
-1253 -1256 0
-1253 -1257 0
-1253 -1258 0
-1253 -1259 0
-1253 -1260 0
-1253 -1261 0
-1254 -1255 0
-1254 -1256 0
-1254 -1257 0
-1254 -1258 0
-1254 -1259 0
-1254 -1260 0
-1254 -1261 0
-1255 -1256 0
-1255 -1257 0
-1255 -1258 0
-1255 -1259 0
-1255 -1260 0
-1255 -1261 0
-1256 -1257 0
-1256 -1258 0
-1256 -1259 0
-1256 -1260 0
-1256 -1261 0
-1257 -1258 0
-1257 -1259 0
-1257 -1260 0
-1257 -1261 0
-1258 -1259 0
-1258 -1260 0
-1258 -1261 0
-1259 -1260 0
-1259 -1261 0
-1260 -1261 0
-1178 593 0
-1178 741 0
-1178 -563 0
-1178 -564 0
-1178 -565 0
-1178 -566 0
-1178 -567 0
-1178 -581 763 0
-1178 -581 -646 0
-1178 -581 -670 0
-1178 -581 -694 0
-1178 -581 -556 -578 0
-1178 -582 764 0
-1178 -582 -647 0
-1178 -582 -671 0
-1178 -582 -695 0
-1178 -582 -556 -579 0
-1178 -583 765 0
-1178 -583 -648 0
-1178 -583 -672 0
-1178 -583 -696 0
-1178 -583 -556 -580 0
-1178 -584 0
-1179 593 0
-1179 742 0
-1179 -562 0
-1179 -564 0
-1179 -565 0
-1179 -566 0
-1179 -567 0
-1179 -581 763 0
-1179 -581 -650 0
-1179 -581 -674 0
-1179 -581 -698 0
-1179 -581 -557 -578 0
-1179 -582 764 0
-1179 -582 -651 0
-1179 -582 -675 0
-1179 -582 -699 0
-1179 -582 -557 -579 0
-1179 -583 765 0
-1179 -583 -652 0
-1179 -583 -676 0
-1179 -583 -700 0
-1179 -583 -557 -580 0
-1179 -584 0
-1180 593 0
-1180 743 0
-1180 -562 0
-1180 -563 0
-1180 -565 0
-1180 -566 0
-1180 -567 0
-1180 -581 763 0
-1180 -581 -654 0
-1180 -581 -678 0
-1180 -581 -702 0
-1180 -581 -558 -578 0
-1180 -582 764 0
-1180 -582 -655 0
-1180 -582 -679 0
-1180 -582 -703 0
-1180 -582 -558 -579 0
-1180 -583 765 0
-1180 -583 -656 0
-1180 -583 -680 0
-1180 -583 -704 0
-1180 -583 -558 -580 0
-1180 -584 0
-1181 593 0
-1181 744 0
-1181 -562 0
-1181 -563 0
-1181 -564 0
-1181 -566 0
-1181 -567 0
-1181 -581 763 0
-1181 -581 -658 0
-1181 -581 -682 0
-1181 -581 -706 0
-1181 -581 -559 -578 0
-1181 -582 764 0
-1181 -582 -659 0
-1181 -582 -683 0
-1181 -582 -707 0
-1181 -582 -559 -579 0
-1181 -583 765 0
-1181 -583 -660 0
-1181 -583 -684 0
-1181 -583 -708 0
-1181 -583 -559 -580 0
-1181 -584 0
-1182 593 0
-1182 745 0
-1182 -562 0
-1182 -563 0
-1182 -564 0
-1182 -565 0
-1182 -567 0
-1182 -581 763 0
-1182 -581 -662 0
-1182 -581 -686 0
-1182 -581 -710 0
-1182 -581 -560 -578 0
-1182 -582 764 0
-1182 -582 -663 0
-1182 -582 -687 0
-1182 -582 -711 0
-1182 -582 -560 -579 0
-1182 -583 765 0
-1182 -583 -664 0
-1182 -583 -688 0
-1182 -583 -712 0
-1182 -583 -560 -580 0
-1182 -584 0
-1183 593 0
-1183 746 0
-1183 -562 0
-1183 -563 0
-1183 -564 0
-1183 -565 0
-1183 -566 0
-1183 -581 763 0
-1183 -581 -666 0
-1183 -581 -690 0
-1183 -581 -714 0
-1183 -581 -561 -578 0
-1183 -582 764 0
-1183 -582 -667 0
-1183 -582 -691 0
-1183 -582 -715 0
-1183 -582 -561 -579 0
-1183 -583 765 0
-1183 -583 -668 0
-1183 -583 -692 0
-1183 -583 -716 0
-1183 -583 -561 -580 0
-1183 -584 0
-1184 593 0
-1184 741 0
-1184 -569 0
-1184 -570 0
-1184 -571 0
-1184 -572 0
-1184 -585 763 0
-1184 -585 -646 0
-1184 -585 -670 0
-1184 -585 -694 0
-1184 -585 -556 -578 0
-1184 -586 764 0
-1184 -586 -647 0
-1184 -586 -671 0
-1184 -586 -695 0
-1184 -586 -556 -579 0
-1184 -587 765 0
-1184 -587 -648 0
-1184 -587 -672 0
-1184 -587 -696 0
-1184 -587 -556 -580 0
-1184 -588 0
-1185 593 0
-1185 742 0
-1185 -570 0
-1185 -571 0
-1185 -572 0
-1185 -585 763 0
-1185 -585 -650 0
-1185 -585 -674 0
-1185 -585 -698 0
-1185 -585 -557 -578 0
-1185 -586 764 0
-1185 -586 -651 0
-1185 -586 -675 0
-1185 -586 -699 0
-1185 -586 -557 -579 0
-1185 -587 765 0
-1185 -587 -652 0
-1185 -587 -676 0
-1185 -587 -700 0
-1185 -587 -557 -580 0
-1185 -588 0
-1186 593 0
-1186 743 0
-1186 -568 0
-1186 -571 0
-1186 -572 0
-1186 -585 763 0
-1186 -585 -654 0
-1186 -585 -678 0
-1186 -585 -702 0
-1186 -585 -558 -578 0
-1186 -586 764 0
-1186 -586 -655 0
-1186 -586 -679 0
-1186 -586 -703 0
-1186 -586 -558 -579 0
-1186 -587 765 0
-1186 -587 -656 0
-1186 -587 -680 0
-1186 -587 -704 0
-1186 -587 -558 -580 0
-1186 -588 0
-1187 593 0
-1187 744 0
-1187 -568 0
-1187 -569 0
-1187 -572 0
-1187 -585 763 0
-1187 -585 -658 0
-1187 -585 -682 0
-1187 -585 -706 0
-1187 -585 -559 -578 0
-1187 -586 764 0
-1187 -586 -659 0
-1187 -586 -683 0
-1187 -586 -707 0
-1187 -586 -559 -579 0
-1187 -587 765 0
-1187 -587 -660 0
-1187 -587 -684 0
-1187 -587 -708 0
-1187 -587 -559 -580 0
-1187 -588 0
-1188 593 0
-1188 745 0
-1188 -568 0
-1188 -569 0
-1188 -570 0
-1188 -585 763 0
-1188 -585 -662 0
-1188 -585 -686 0
-1188 -585 -710 0
-1188 -585 -560 -578 0
-1188 -586 764 0
-1188 -586 -663 0
-1188 -586 -687 0
-1188 -586 -711 0
-1188 -586 -560 -579 0
-1188 -587 765 0
-1188 -587 -664 0
-1188 -587 -688 0
-1188 -587 -712 0
-1188 -587 -560 -580 0
-1188 -588 0
-1189 593 0
-1189 746 0
-1189 -568 0
-1189 -569 0
-1189 -570 0
-1189 -571 0
-1189 -585 763 0
-1189 -585 -666 0
-1189 -585 -690 0
-1189 -585 -714 0
-1189 -585 -561 -578 0
-1189 -586 764 0
-1189 -586 -667 0
-1189 -586 -691 0
-1189 -586 -715 0
-1189 -586 -561 -579 0
-1189 -587 765 0
-1189 -587 -668 0
-1189 -587 -692 0
-1189 -587 -716 0
-1189 -587 -561 -580 0
-1189 -588 0
-1190 593 0
-1190 741 0
-1190 -574 0
-1190 -575 0
-1190 -576 0
-1190 -589 763 0
-1190 -589 -646 0
-1190 -589 -670 0
-1190 -589 -694 0
-1190 -589 -556 -578 0
-1190 -590 764 0
-1190 -590 -647 0
-1190 -590 -671 0
-1190 -590 -695 0
-1190 -590 -556 -579 0
-1190 -591 765 0
-1190 -591 -648 0
-1190 -591 -672 0
-1190 -591 -696 0
-1190 -591 -556 -580 0
-1190 -592 0
-1191 593 0
-1191 742 0
-1191 -575 0
-1191 -576 0
-1191 -589 763 0
-1191 -589 -650 0
-1191 -589 -674 0
-1191 -589 -698 0
-1191 -589 -557 -578 0
-1191 -590 764 0
-1191 -590 -651 0
-1191 -590 -675 0
-1191 -590 -699 0
-1191 -590 -557 -579 0
-1191 -591 765 0
-1191 -591 -652 0
-1191 -591 -676 0
-1191 -591 -700 0
-1191 -591 -557 -580 0
-1191 -592 0
-1192 593 0
-1192 743 0
-1192 -576 0
-1192 -589 763 0
-1192 -589 -654 0
-1192 -589 -678 0
-1192 -589 -702 0
-1192 -589 -558 -578 0
-1192 -590 764 0
-1192 -590 -655 0
-1192 -590 -679 0
-1192 -590 -703 0
-1192 -590 -558 -579 0
-1192 -591 765 0
-1192 -591 -656 0
-1192 -591 -680 0
-1192 -591 -704 0
-1192 -591 -558 -580 0
-1192 -592 0
-1193 593 0
-1193 744 0
-1193 -573 0
-1193 -589 763 0
-1193 -589 -658 0
-1193 -589 -682 0
-1193 -589 -706 0
-1193 -589 -559 -578 0
-1193 -590 764 0
-1193 -590 -659 0
-1193 -590 -683 0
-1193 -590 -707 0
-1193 -590 -559 -579 0
-1193 -591 765 0
-1193 -591 -660 0
-1193 -591 -684 0
-1193 -591 -708 0
-1193 -591 -559 -580 0
-1193 -592 0
-1194 593 0
-1194 745 0
-1194 -573 0
-1194 -574 0
-1194 -589 763 0
-1194 -589 -662 0
-1194 -589 -686 0
-1194 -589 -710 0
-1194 -589 -560 -578 0
-1194 -590 764 0
-1194 -590 -663 0
-1194 -590 -687 0
-1194 -590 -711 0
-1194 -590 -560 -579 0
-1194 -591 765 0
-1194 -591 -664 0
-1194 -591 -688 0
-1194 -591 -712 0
-1194 -591 -560 -580 0
-1194 -592 0
-1195 593 0
-1195 746 0
-1195 -573 0
-1195 -574 0
-1195 -575 0
-1195 -589 763 0
-1195 -589 -666 0
-1195 -589 -690 0
-1195 -589 -714 0
-1195 -589 -561 -578 0
-1195 -590 764 0
-1195 -590 -667 0
-1195 -590 -691 0
-1195 -590 -715 0
-1195 -590 -561 -579 0
-1195 -591 765 0
-1195 -591 -668 0
-1195 -591 -692 0
-1195 -591 -716 0
-1195 -591 -561 -580 0
-1195 -592 0
-1196 593 0
-1196 741 0
-1196 762 0
-1196 -645 0
-1196 -669 0
-1196 -693 0
-1196 -556 -577 0
-1197 593 0
-1197 742 0
-1197 762 0
-1197 -649 0
-1197 -673 0
-1197 -697 0
-1197 -557 -577 0
-1198 593 0
-1198 743 0
-1198 762 0
-1198 -653 0
-1198 -677 0
-1198 -701 0
-1198 -558 -577 0
-1199 593 0
-1199 744 0
-1199 762 0
-1199 -657 0
-1199 -681 0
-1199 -705 0
-1199 -559 -577 0
-1200 593 0
-1200 745 0
-1200 762 0
-1200 -661 0
-1200 -685 0
-1200 -709 0
-1200 -560 -577 0
-1201 593 0
-1201 746 0
-1201 762 0
-1201 -665 0
-1201 -689 0
-1201 -713 0
-1201 -561 -577 0
-1202 594 0
-1202 747 0
-1202 -557 0
-1202 -558 0
-1202 -559 0
-1202 -560 0
-1202 -561 0
-1202 -577 767 0
-1202 -577 -622 0
-1202 -577 -670 0
-1202 -577 -694 0
-1202 -577 -562 -582 0
-1202 -578 768 0
-1202 -578 -623 0
-1202 -578 -671 0
-1202 -578 -695 0
-1202 -578 -562 -583 0
-1202 -579 769 0
-1202 -579 -624 0
-1202 -579 -672 0
-1202 -579 -696 0
-1202 -579 -562 -584 0
-1202 -580 0
-1203 594 0
-1203 748 0
-1203 -556 0
-1203 -558 0
-1203 -559 0
-1203 -560 0
-1203 -561 0
-1203 -577 767 0
-1203 -577 -626 0
-1203 -577 -674 0
-1203 -577 -698 0
-1203 -577 -563 -582 0
-1203 -578 768 0
-1203 -578 -627 0
-1203 -578 -675 0
-1203 -578 -699 0
-1203 -578 -563 -583 0
-1203 -579 769 0
-1203 -579 -628 0
-1203 -579 -676 0
-1203 -579 -700 0
-1203 -579 -563 -584 0
-1203 -580 0
-1204 594 0
-1204 749 0
-1204 -556 0
-1204 -557 0
-1204 -559 0
-1204 -560 0
-1204 -561 0
-1204 -577 767 0
-1204 -577 -630 0
-1204 -577 -678 0
-1204 -577 -702 0
-1204 -577 -564 -582 0
-1204 -578 768 0
-1204 -578 -631 0
-1204 -578 -679 0
-1204 -578 -703 0
-1204 -578 -564 -583 0
-1204 -579 769 0
-1204 -579 -632 0
-1204 -579 -680 0
-1204 -579 -704 0
-1204 -579 -564 -584 0
-1204 -580 0
-1205 594 0
-1205 750 0
-1205 -556 0
-1205 -557 0
-1205 -558 0
-1205 -560 0
-1205 -561 0
-1205 -577 767 0
-1205 -577 -634 0
-1205 -577 -682 0
-1205 -577 -706 0
-1205 -577 -565 -582 0
-1205 -578 768 0
-1205 -578 -635 0
-1205 -578 -683 0
-1205 -578 -707 0
-1205 -578 -565 -583 0
-1205 -579 769 0
-1205 -579 -636 0
-1205 -579 -684 0
-1205 -579 -708 0
-1205 -579 -565 -584 0
-1205 -580 0
-1206 594 0
-1206 751 0
-1206 -556 0
-1206 -557 0
-1206 -558 0
-1206 -559 0
-1206 -561 0
-1206 -577 767 0
-1206 -577 -638 0
-1206 -577 -686 0
-1206 -577 -710 0
-1206 -577 -566 -582 0
-1206 -578 768 0
-1206 -578 -639 0
-1206 -578 -687 0
-1206 -578 -711 0
-1206 -578 -566 -583 0
-1206 -579 769 0
-1206 -579 -640 0
-1206 -579 -688 0
-1206 -579 -712 0
-1206 -579 -566 -584 0
-1206 -580 0
-1207 594 0
-1207 752 0
-1207 -556 0
-1207 -557 0
-1207 -558 0
-1207 -559 0
-1207 -560 0
-1207 -577 767 0
-1207 -577 -642 0
-1207 -577 -690 0
-1207 -577 -714 0
-1207 -577 -567 -582 0
-1207 -578 768 0
-1207 -578 -643 0
-1207 -578 -691 0
-1207 -578 -715 0
-1207 -578 -567 -583 0
-1207 -579 769 0
-1207 -579 -644 0
-1207 -579 -692 0
-1207 -579 -716 0
-1207 -579 -567 -584 0
-1207 -580 0
-1208 594 0
-1208 747 0
-1208 -569 0
-1208 -570 0
-1208 -571 0
-1208 -572 0
-1208 -585 767 0
-1208 -585 -622 0
-1208 -585 -670 0
-1208 -585 -694 0
-1208 -585 -562 -582 0
-1208 -586 768 0
-1208 -586 -623 0
-1208 -586 -671 0
-1208 -586 -695 0
-1208 -586 -562 -583 0
-1208 -587 769 0
-1208 -587 -624 0
-1208 -587 -672 0
-1208 -587 -696 0
-1208 -587 -562 -584 0
-1208 -588 0
-1209 594 0
-1209 748 0
-1209 -570 0
-1209 -571 0
-1209 -572 0
-1209 -585 767 0
-1209 -585 -626 0
-1209 -585 -674 0
-1209 -585 -698 0
-1209 -585 -563 -582 0
-1209 -586 768 0
-1209 -586 -627 0
-1209 -586 -675 0
-1209 -586 -699 0
-1209 -586 -563 -583 0
-1209 -587 769 0
-1209 -587 -628 0
-1209 -587 -676 0
-1209 -587 -700 0
-1209 -587 -563 -584 0
-1209 -588 0
-1210 594 0
-1210 749 0
-1210 -568 0
-1210 -571 0
-1210 -572 0
-1210 -585 767 0
-1210 -585 -630 0
-1210 -585 -678 0
-1210 -585 -702 0
-1210 -585 -564 -582 0
-1210 -586 768 0
-1210 -586 -631 0
-1210 -586 -679 0
-1210 -586 -703 0
-1210 -586 -564 -583 0
-1210 -587 769 0
-1210 -587 -632 0
-1210 -587 -680 0
-1210 -587 -704 0
-1210 -587 -564 -584 0
-1210 -588 0
-1211 594 0
-1211 750 0
-1211 -568 0
-1211 -569 0
-1211 -572 0
-1211 -585 767 0
-1211 -585 -634 0
-1211 -585 -682 0
-1211 -585 -706 0
-1211 -585 -565 -582 0
-1211 -586 768 0
-1211 -586 -635 0
-1211 -586 -683 0
-1211 -586 -707 0
-1211 -586 -565 -583 0
-1211 -587 769 0
-1211 -587 -636 0
-1211 -587 -684 0
-1211 -587 -708 0
-1211 -587 -565 -584 0
-1211 -588 0
-1212 594 0
-1212 751 0
-1212 -568 0
-1212 -569 0
-1212 -570 0
-1212 -585 767 0
-1212 -585 -638 0
-1212 -585 -686 0
-1212 -585 -710 0
-1212 -585 -566 -582 0
-1212 -586 768 0
-1212 -586 -639 0
-1212 -586 -687 0
-1212 -586 -711 0
-1212 -586 -566 -583 0
-1212 -587 769 0
-1212 -587 -640 0
-1212 -587 -688 0
-1212 -587 -712 0
-1212 -587 -566 -584 0
-1212 -588 0
-1213 594 0
-1213 752 0
-1213 -568 0
-1213 -569 0
-1213 -570 0
-1213 -571 0
-1213 -585 767 0
-1213 -585 -642 0
-1213 -585 -690 0
-1213 -585 -714 0
-1213 -585 -567 -582 0
-1213 -586 768 0
-1213 -586 -643 0
-1213 -586 -691 0
-1213 -586 -715 0
-1213 -586 -567 -583 0
-1213 -587 769 0
-1213 -587 -644 0
-1213 -587 -692 0
-1213 -587 -716 0
-1213 -587 -567 -584 0
-1213 -588 0
-1214 594 0
-1214 747 0
-1214 -574 0
-1214 -575 0
-1214 -576 0
-1214 -589 767 0
-1214 -589 -622 0
-1214 -589 -670 0
-1214 -589 -694 0
-1214 -589 -562 -582 0
-1214 -590 768 0
-1214 -590 -623 0
-1214 -590 -671 0
-1214 -590 -695 0
-1214 -590 -562 -583 0
-1214 -591 769 0
-1214 -591 -624 0
-1214 -591 -672 0
-1214 -591 -696 0
-1214 -591 -562 -584 0
-1214 -592 0
-1215 594 0
-1215 748 0
-1215 -575 0
-1215 -576 0
-1215 -589 767 0
-1215 -589 -626 0
-1215 -589 -674 0
-1215 -589 -698 0
-1215 -589 -563 -582 0
-1215 -590 768 0
-1215 -590 -627 0
-1215 -590 -675 0
-1215 -590 -699 0
-1215 -590 -563 -583 0
-1215 -591 769 0
-1215 -591 -628 0
-1215 -591 -676 0
-1215 -591 -700 0
-1215 -591 -563 -584 0
-1215 -592 0
-1216 594 0
-1216 749 0
-1216 -576 0
-1216 -589 767 0
-1216 -589 -630 0
-1216 -589 -678 0
-1216 -589 -702 0
-1216 -589 -564 -582 0
-1216 -590 768 0
-1216 -590 -631 0
-1216 -590 -679 0
-1216 -590 -703 0
-1216 -590 -564 -583 0
-1216 -591 769 0
-1216 -591 -632 0
-1216 -591 -680 0
-1216 -591 -704 0
-1216 -591 -564 -584 0
-1216 -592 0
-1217 594 0
-1217 750 0
-1217 -573 0
-1217 -589 767 0
-1217 -589 -634 0
-1217 -589 -682 0
-1217 -589 -706 0
-1217 -589 -565 -582 0
-1217 -590 768 0
-1217 -590 -635 0
-1217 -590 -683 0
-1217 -590 -707 0
-1217 -590 -565 -583 0
-1217 -591 769 0
-1217 -591 -636 0
-1217 -591 -684 0
-1217 -591 -708 0
-1217 -591 -565 -584 0
-1217 -592 0
-1218 594 0
-1218 751 0
-1218 -573 0
-1218 -574 0
-1218 -589 767 0
-1218 -589 -638 0
-1218 -589 -686 0
-1218 -589 -710 0
-1218 -589 -566 -582 0
-1218 -590 768 0
-1218 -590 -639 0
-1218 -590 -687 0
-1218 -590 -711 0
-1218 -590 -566 -583 0
-1218 -591 769 0
-1218 -591 -640 0
-1218 -591 -688 0
-1218 -591 -712 0
-1218 -591 -566 -584 0
-1218 -592 0
-1219 594 0
-1219 752 0
-1219 -573 0
-1219 -574 0
-1219 -575 0
-1219 -589 767 0
-1219 -589 -642 0
-1219 -589 -690 0
-1219 -589 -714 0
-1219 -589 -567 -582 0
-1219 -590 768 0
-1219 -590 -643 0
-1219 -590 -691 0
-1219 -590 -715 0
-1219 -590 -567 -583 0
-1219 -591 769 0
-1219 -591 -644 0
-1219 -591 -692 0
-1219 -591 -716 0
-1219 -591 -567 -584 0
-1219 -592 0
-1220 594 0
-1220 747 0
-1220 766 0
-1220 -621 0
-1220 -669 0
-1220 -693 0
-1220 -562 -581 0
-1221 594 0
-1221 748 0
-1221 766 0
-1221 -625 0
-1221 -673 0
-1221 -697 0
-1221 -563 -581 0
-1222 594 0
-1222 749 0
-1222 766 0
-1222 -629 0
-1222 -677 0
-1222 -701 0
-1222 -564 -581 0
-1223 594 0
-1223 750 0
-1223 766 0
-1223 -633 0
-1223 -681 0
-1223 -705 0
-1223 -565 -581 0
-1224 594 0
-1224 751 0
-1224 766 0
-1224 -637 0
-1224 -685 0
-1224 -709 0
-1224 -566 -581 0
-1225 594 0
-1225 752 0
-1225 766 0
-1225 -641 0
-1225 -689 0
-1225 -713 0
-1225 -567 -581 0
-1226 595 0
-1226 753 0
-1226 -558 0
-1226 -559 0
-1226 -560 0
-1226 -561 0
-1226 -577 771 0
-1226 -577 -622 0
-1226 -577 -626 0
-1226 -577 -646 0
-1226 -577 -650 0
-1226 -577 -694 0
-1226 -577 -698 0
-1226 -577 -568 -586 0
-1226 -578 772 0
-1226 -578 -623 0
-1226 -578 -627 0
-1226 -578 -647 0
-1226 -578 -651 0
-1226 -578 -695 0
-1226 -578 -699 0
-1226 -578 -568 -587 0
-1226 -579 773 0
-1226 -579 -624 0
-1226 -579 -628 0
-1226 -579 -648 0
-1226 -579 -652 0
-1226 -579 -696 0
-1226 -579 -700 0
-1226 -579 -568 -588 0
-1226 -580 0
-1227 595 0
-1227 754 0
-1227 -556 0
-1227 -559 0
-1227 -560 0
-1227 -561 0
-1227 -577 771 0
-1227 -577 -626 0
-1227 -577 -630 0
-1227 -577 -650 0
-1227 -577 -654 0
-1227 -577 -698 0
-1227 -577 -702 0
-1227 -577 -569 -586 0
-1227 -578 772 0
-1227 -578 -627 0
-1227 -578 -631 0
-1227 -578 -651 0
-1227 -578 -655 0
-1227 -578 -699 0
-1227 -578 -703 0
-1227 -578 -569 -587 0
-1227 -579 773 0
-1227 -579 -628 0
-1227 -579 -632 0
-1227 -579 -652 0
-1227 -579 -656 0
-1227 -579 -700 0
-1227 -579 -704 0
-1227 -579 -569 -588 0
-1227 -580 0
-1228 595 0
-1228 755 0
-1228 -556 0
-1228 -557 0
-1228 -560 0
-1228 -561 0
-1228 -577 771 0
-1228 -577 -630 0
-1228 -577 -634 0
-1228 -577 -654 0
-1228 -577 -658 0
-1228 -577 -702 0
-1228 -577 -706 0
-1228 -577 -570 -586 0
-1228 -578 772 0
-1228 -578 -631 0
-1228 -578 -635 0
-1228 -578 -655 0
-1228 -578 -659 0
-1228 -578 -703 0
-1228 -578 -707 0
-1228 -578 -570 -587 0
-1228 -579 773 0
-1228 -579 -632 0
-1228 -579 -636 0
-1228 -579 -656 0
-1228 -579 -660 0
-1228 -579 -704 0
-1228 -579 -708 0
-1228 -579 -570 -588 0
-1228 -580 0
-1229 595 0
-1229 756 0
-1229 -556 0
-1229 -557 0
-1229 -558 0
-1229 -561 0
-1229 -577 771 0
-1229 -577 -634 0
-1229 -577 -638 0
-1229 -577 -658 0
-1229 -577 -662 0
-1229 -577 -706 0
-1229 -577 -710 0
-1229 -577 -571 -586 0
-1229 -578 772 0
-1229 -578 -635 0
-1229 -578 -639 0
-1229 -578 -659 0
-1229 -578 -663 0
-1229 -578 -707 0
-1229 -578 -711 0
-1229 -578 -571 -587 0
-1229 -579 773 0
-1229 -579 -636 0
-1229 -579 -640 0
-1229 -579 -660 0
-1229 -579 -664 0
-1229 -579 -708 0
-1229 -579 -712 0
-1229 -579 -571 -588 0
-1229 -580 0
-1230 595 0
-1230 757 0
-1230 -556 0
-1230 -557 0
-1230 -558 0
-1230 -559 0
-1230 -577 771 0
-1230 -577 -638 0
-1230 -577 -642 0
-1230 -577 -662 0
-1230 -577 -666 0
-1230 -577 -710 0
-1230 -577 -714 0
-1230 -577 -572 -586 0
-1230 -578 772 0
-1230 -578 -639 0
-1230 -578 -643 0
-1230 -578 -663 0
-1230 -578 -667 0
-1230 -578 -711 0
-1230 -578 -715 0
-1230 -578 -572 -587 0
-1230 -579 773 0
-1230 -579 -640 0
-1230 -579 -644 0
-1230 -579 -664 0
-1230 -579 -668 0
-1230 -579 -712 0
-1230 -579 -716 0
-1230 -579 -572 -588 0
-1230 -580 0
-1231 595 0
-1231 753 0
-1231 -564 0
-1231 -565 0
-1231 -566 0
-1231 -567 0
-1231 -581 771 0
-1231 -581 -622 0
-1231 -581 -626 0
-1231 -581 -646 0
-1231 -581 -650 0
-1231 -581 -694 0
-1231 -581 -698 0
-1231 -581 -568 -586 0
-1231 -582 772 0
-1231 -582 -623 0
-1231 -582 -627 0
-1231 -582 -647 0
-1231 -582 -651 0
-1231 -582 -695 0
-1231 -582 -699 0
-1231 -582 -568 -587 0
-1231 -583 773 0
-1231 -583 -624 0
-1231 -583 -628 0
-1231 -583 -648 0
-1231 -583 -652 0
-1231 -583 -696 0
-1231 -583 -700 0
-1231 -583 -568 -588 0
-1231 -584 0
-1232 595 0
-1232 754 0
-1232 -562 0
-1232 -565 0
-1232 -566 0
-1232 -567 0
-1232 -581 771 0
-1232 -581 -626 0
-1232 -581 -630 0
-1232 -581 -650 0
-1232 -581 -654 0
-1232 -581 -698 0
-1232 -581 -702 0
-1232 -581 -569 -586 0
-1232 -582 772 0
-1232 -582 -627 0
-1232 -582 -631 0
-1232 -582 -651 0
-1232 -582 -655 0
-1232 -582 -699 0
-1232 -582 -703 0
-1232 -582 -569 -587 0
-1232 -583 773 0
-1232 -583 -628 0
-1232 -583 -632 0
-1232 -583 -652 0
-1232 -583 -656 0
-1232 -583 -700 0
-1232 -583 -704 0
-1232 -583 -569 -588 0
-1232 -584 0
-1233 595 0
-1233 755 0
-1233 -562 0
-1233 -563 0
-1233 -566 0
-1233 -567 0
-1233 -581 771 0
-1233 -581 -630 0
-1233 -581 -634 0
-1233 -581 -654 0
-1233 -581 -658 0
-1233 -581 -702 0
-1233 -581 -706 0
-1233 -581 -570 -586 0
-1233 -582 772 0
-1233 -582 -631 0
-1233 -582 -635 0
-1233 -582 -655 0
-1233 -582 -659 0
-1233 -582 -703 0
-1233 -582 -707 0
-1233 -582 -570 -587 0
-1233 -583 773 0
-1233 -583 -632 0
-1233 -583 -636 0
-1233 -583 -656 0
-1233 -583 -660 0
-1233 -583 -704 0
-1233 -583 -708 0
-1233 -583 -570 -588 0
-1233 -584 0
-1234 595 0
-1234 756 0
-1234 -562 0
-1234 -563 0
-1234 -564 0
-1234 -567 0
-1234 -581 771 0
-1234 -581 -634 0
-1234 -581 -638 0
-1234 -581 -658 0
-1234 -581 -662 0
-1234 -581 -706 0
-1234 -581 -710 0
-1234 -581 -571 -586 0
-1234 -582 772 0
-1234 -582 -635 0
-1234 -582 -639 0
-1234 -582 -659 0
-1234 -582 -663 0
-1234 -582 -707 0
-1234 -582 -711 0
-1234 -582 -571 -587 0
-1234 -583 773 0
-1234 -583 -636 0
-1234 -583 -640 0
-1234 -583 -660 0
-1234 -583 -664 0
-1234 -583 -708 0
-1234 -583 -712 0
-1234 -583 -571 -588 0
-1234 -584 0
-1235 595 0
-1235 757 0
-1235 -562 0
-1235 -563 0
-1235 -564 0
-1235 -565 0
-1235 -581 771 0
-1235 -581 -638 0
-1235 -581 -642 0
-1235 -581 -662 0
-1235 -581 -666 0
-1235 -581 -710 0
-1235 -581 -714 0
-1235 -581 -572 -586 0
-1235 -582 772 0
-1235 -582 -639 0
-1235 -582 -643 0
-1235 -582 -663 0
-1235 -582 -667 0
-1235 -582 -711 0
-1235 -582 -715 0
-1235 -582 -572 -587 0
-1235 -583 773 0
-1235 -583 -640 0
-1235 -583 -644 0
-1235 -583 -664 0
-1235 -583 -668 0
-1235 -583 -712 0
-1235 -583 -716 0
-1235 -583 -572 -588 0
-1235 -584 0
-1236 595 0
-1236 753 0
-1236 -575 0
-1236 -576 0
-1236 -589 771 0
-1236 -589 -622 0
-1236 -589 -626 0
-1236 -589 -646 0
-1236 -589 -650 0
-1236 -589 -694 0
-1236 -589 -698 0
-1236 -589 -568 -586 0
-1236 -590 772 0
-1236 -590 -623 0
-1236 -590 -627 0
-1236 -590 -647 0
-1236 -590 -651 0
-1236 -590 -695 0
-1236 -590 -699 0
-1236 -590 -568 -587 0
-1236 -591 773 0
-1236 -591 -624 0
-1236 -591 -628 0
-1236 -591 -648 0
-1236 -591 -652 0
-1236 -591 -696 0
-1236 -591 -700 0
-1236 -591 -568 -588 0
-1236 -592 0
-1237 595 0
-1237 754 0
-1237 -576 0
-1237 -589 771 0
-1237 -589 -626 0
-1237 -589 -630 0
-1237 -589 -650 0
-1237 -589 -654 0
-1237 -589 -698 0
-1237 -589 -702 0
-1237 -589 -569 -586 0
-1237 -590 772 0
-1237 -590 -627 0
-1237 -590 -631 0
-1237 -590 -651 0
-1237 -590 -655 0
-1237 -590 -699 0
-1237 -590 -703 0
-1237 -590 -569 -587 0
-1237 -591 773 0
-1237 -591 -628 0
-1237 -591 -632 0
-1237 -591 -652 0
-1237 -591 -656 0
-1237 -591 -700 0
-1237 -591 -704 0
-1237 -591 -569 -588 0
-1237 -592 0
-1238 595 0
-1238 755 0
-1238 -589 771 0
-1238 -589 -630 0
-1238 -589 -634 0
-1238 -589 -654 0
-1238 -589 -658 0
-1238 -589 -702 0
-1238 -589 -706 0
-1238 -589 -570 -586 0
-1238 -590 772 0
-1238 -590 -631 0
-1238 -590 -635 0
-1238 -590 -655 0
-1238 -590 -659 0
-1238 -590 -703 0
-1238 -590 -707 0
-1238 -590 -570 -587 0
-1238 -591 773 0
-1238 -591 -632 0
-1238 -591 -636 0
-1238 -591 -656 0
-1238 -591 -660 0
-1238 -591 -704 0
-1238 -591 -708 0
-1238 -591 -570 -588 0
-1238 -592 0
-1239 595 0
-1239 756 0
-1239 -573 0
-1239 -589 771 0
-1239 -589 -634 0
-1239 -589 -638 0
-1239 -589 -658 0
-1239 -589 -662 0
-1239 -589 -706 0
-1239 -589 -710 0
-1239 -589 -571 -586 0
-1239 -590 772 0
-1239 -590 -635 0
-1239 -590 -639 0
-1239 -590 -659 0
-1239 -590 -663 0
-1239 -590 -707 0
-1239 -590 -711 0
-1239 -590 -571 -587 0
-1239 -591 773 0
-1239 -591 -636 0
-1239 -591 -640 0
-1239 -591 -660 0
-1239 -591 -664 0
-1239 -591 -708 0
-1239 -591 -712 0
-1239 -591 -571 -588 0
-1239 -592 0
-1240 595 0
-1240 757 0
-1240 -573 0
-1240 -574 0
-1240 -589 771 0
-1240 -589 -638 0
-1240 -589 -642 0
-1240 -589 -662 0
-1240 -589 -666 0
-1240 -589 -710 0
-1240 -589 -714 0
-1240 -589 -572 -586 0
-1240 -590 772 0
-1240 -590 -639 0
-1240 -590 -643 0
-1240 -590 -663 0
-1240 -590 -667 0
-1240 -590 -711 0
-1240 -590 -715 0
-1240 -590 -572 -587 0
-1240 -591 773 0
-1240 -591 -640 0
-1240 -591 -644 0
-1240 -591 -664 0
-1240 -591 -668 0
-1240 -591 -712 0
-1240 -591 -716 0
-1240 -591 -572 -588 0
-1240 -592 0
-1241 595 0
-1241 753 0
-1241 770 0
-1241 -621 0
-1241 -625 0
-1241 -645 0
-1241 -649 0
-1241 -693 0
-1241 -697 0
-1241 -568 -585 0
-1242 595 0
-1242 754 0
-1242 770 0
-1242 -625 0
-1242 -629 0
-1242 -649 0
-1242 -653 0
-1242 -697 0
-1242 -701 0
-1242 -569 -585 0
-1243 595 0
-1243 755 0
-1243 770 0
-1243 -629 0
-1243 -633 0
-1243 -653 0
-1243 -657 0
-1243 -701 0
-1243 -705 0
-1243 -570 -585 0
-1244 595 0
-1244 756 0
-1244 770 0
-1244 -633 0
-1244 -637 0
-1244 -657 0
-1244 -661 0
-1244 -705 0
-1244 -709 0
-1244 -571 -585 0
-1245 595 0
-1245 757 0
-1245 770 0
-1245 -637 0
-1245 -641 0
-1245 -661 0
-1245 -665 0
-1245 -709 0
-1245 -713 0
-1245 -572 -585 0
-1246 596 0
-1246 758 0
-1246 -559 0
-1246 -560 0
-1246 -561 0
-1246 -577 775 0
-1246 -577 -622 0
-1246 -577 -626 0
-1246 -577 -630 0
-1246 -577 -646 0
-1246 -577 -650 0
-1246 -577 -654 0
-1246 -577 -670 0
-1246 -577 -674 0
-1246 -577 -678 0
-1246 -577 -573 -590 0
-1246 -578 776 0
-1246 -578 -623 0
-1246 -578 -627 0
-1246 -578 -631 0
-1246 -578 -647 0
-1246 -578 -651 0
-1246 -578 -655 0
-1246 -578 -671 0
-1246 -578 -675 0
-1246 -578 -679 0
-1246 -578 -573 -591 0
-1246 -579 777 0
-1246 -579 -624 0
-1246 -579 -628 0
-1246 -579 -632 0
-1246 -579 -648 0
-1246 -579 -652 0
-1246 -579 -656 0
-1246 -579 -672 0
-1246 -579 -676 0
-1246 -579 -680 0
-1246 -579 -573 -592 0
-1246 -580 0
-1247 596 0
-1247 759 0
-1247 -556 0
-1247 -560 0
-1247 -561 0
-1247 -577 775 0
-1247 -577 -626 0
-1247 -577 -630 0
-1247 -577 -634 0
-1247 -577 -650 0
-1247 -577 -654 0
-1247 -577 -658 0
-1247 -577 -674 0
-1247 -577 -678 0
-1247 -577 -682 0
-1247 -577 -574 -590 0
-1247 -578 776 0
-1247 -578 -627 0
-1247 -578 -631 0
-1247 -578 -635 0
-1247 -578 -651 0
-1247 -578 -655 0
-1247 -578 -659 0
-1247 -578 -675 0
-1247 -578 -679 0
-1247 -578 -683 0
-1247 -578 -574 -591 0
-1247 -579 777 0
-1247 -579 -628 0
-1247 -579 -632 0
-1247 -579 -636 0
-1247 -579 -652 0
-1247 -579 -656 0
-1247 -579 -660 0
-1247 -579 -676 0
-1247 -579 -680 0
-1247 -579 -684 0
-1247 -579 -574 -592 0
-1247 -580 0
-1248 596 0
-1248 760 0
-1248 -556 0
-1248 -557 0
-1248 -561 0
-1248 -577 775 0
-1248 -577 -630 0
-1248 -577 -634 0
-1248 -577 -638 0
-1248 -577 -654 0
-1248 -577 -658 0
-1248 -577 -662 0
-1248 -577 -678 0
-1248 -577 -682 0
-1248 -577 -686 0
-1248 -577 -575 -590 0
-1248 -578 776 0
-1248 -578 -631 0
-1248 -578 -635 0
-1248 -578 -639 0
-1248 -578 -655 0
-1248 -578 -659 0
-1248 -578 -663 0
-1248 -578 -679 0
-1248 -578 -683 0
-1248 -578 -687 0
-1248 -578 -575 -591 0
-1248 -579 777 0
-1248 -579 -632 0
-1248 -579 -636 0
-1248 -579 -640 0
-1248 -579 -656 0
-1248 -579 -660 0
-1248 -579 -664 0
-1248 -579 -680 0
-1248 -579 -684 0
-1248 -579 -688 0
-1248 -579 -575 -592 0
-1248 -580 0
-1249 596 0
-1249 761 0
-1249 -556 0
-1249 -557 0
-1249 -558 0
-1249 -577 775 0
-1249 -577 -634 0
-1249 -577 -638 0
-1249 -577 -642 0
-1249 -577 -658 0
-1249 -577 -662 0
-1249 -577 -666 0
-1249 -577 -682 0
-1249 -577 -686 0
-1249 -577 -690 0
-1249 -577 -576 -590 0
-1249 -578 776 0
-1249 -578 -635 0
-1249 -578 -639 0
-1249 -578 -643 0
-1249 -578 -659 0
-1249 -578 -663 0
-1249 -578 -667 0
-1249 -578 -683 0
-1249 -578 -687 0
-1249 -578 -691 0
-1249 -578 -576 -591 0
-1249 -579 777 0
-1249 -579 -636 0
-1249 -579 -640 0
-1249 -579 -644 0
-1249 -579 -660 0
-1249 -579 -664 0
-1249 -579 -668 0
-1249 -579 -684 0
-1249 -579 -688 0
-1249 -579 -692 0
-1249 -579 -576 -592 0
-1249 -580 0
-1250 596 0
-1250 758 0
-1250 -565 0
-1250 -566 0
-1250 -567 0
-1250 -581 775 0
-1250 -581 -622 0
-1250 -581 -626 0
-1250 -581 -630 0
-1250 -581 -646 0
-1250 -581 -650 0
-1250 -581 -654 0
-1250 -581 -670 0
-1250 -581 -674 0
-1250 -581 -678 0
-1250 -581 -573 -590 0
-1250 -582 776 0
-1250 -582 -623 0
-1250 -582 -627 0
-1250 -582 -631 0
-1250 -582 -647 0
-1250 -582 -651 0
-1250 -582 -655 0
-1250 -582 -671 0
-1250 -582 -675 0
-1250 -582 -679 0
-1250 -582 -573 -591 0
-1250 -583 777 0
-1250 -583 -624 0
-1250 -583 -628 0
-1250 -583 -632 0
-1250 -583 -648 0
-1250 -583 -652 0
-1250 -583 -656 0
-1250 -583 -672 0
-1250 -583 -676 0
-1250 -583 -680 0
-1250 -583 -573 -592 0
-1250 -584 0
-1251 596 0
-1251 759 0
-1251 -562 0
-1251 -566 0
-1251 -567 0
-1251 -581 775 0
-1251 -581 -626 0
-1251 -581 -630 0
-1251 -581 -634 0
-1251 -581 -650 0
-1251 -581 -654 0
-1251 -581 -658 0
-1251 -581 -674 0
-1251 -581 -678 0
-1251 -581 -682 0
-1251 -581 -574 -590 0
-1251 -582 776 0
-1251 -582 -627 0
-1251 -582 -631 0
-1251 -582 -635 0
-1251 -582 -651 0
-1251 -582 -655 0
-1251 -582 -659 0
-1251 -582 -675 0
-1251 -582 -679 0
-1251 -582 -683 0
-1251 -582 -574 -591 0
-1251 -583 777 0
-1251 -583 -628 0
-1251 -583 -632 0
-1251 -583 -636 0
-1251 -583 -652 0
-1251 -583 -656 0
-1251 -583 -660 0
-1251 -583 -676 0
-1251 -583 -680 0
-1251 -583 -684 0
-1251 -583 -574 -592 0
-1251 -584 0
-1252 596 0
-1252 760 0
-1252 -562 0
-1252 -563 0
-1252 -567 0
-1252 -581 775 0
-1252 -581 -630 0
-1252 -581 -634 0
-1252 -581 -638 0
-1252 -581 -654 0
-1252 -581 -658 0
-1252 -581 -662 0
-1252 -581 -678 0
-1252 -581 -682 0
-1252 -581 -686 0
-1252 -581 -575 -590 0
-1252 -582 776 0
-1252 -582 -631 0
-1252 -582 -635 0
-1252 -582 -639 0
-1252 -582 -655 0
-1252 -582 -659 0
-1252 -582 -663 0
-1252 -582 -679 0
-1252 -582 -683 0
-1252 -582 -687 0
-1252 -582 -575 -591 0
-1252 -583 777 0
-1252 -583 -632 0
-1252 -583 -636 0
-1252 -583 -640 0
-1252 -583 -656 0
-1252 -583 -660 0
-1252 -583 -664 0
-1252 -583 -680 0
-1252 -583 -684 0
-1252 -583 -688 0
-1252 -583 -575 -592 0
-1252 -584 0
-1253 596 0
-1253 761 0
-1253 -562 0
-1253 -563 0
-1253 -564 0
-1253 -581 775 0
-1253 -581 -634 0
-1253 -581 -638 0
-1253 -581 -642 0
-1253 -581 -658 0
-1253 -581 -662 0
-1253 -581 -666 0
-1253 -581 -682 0
-1253 -581 -686 0
-1253 -581 -690 0
-1253 -581 -576 -590 0
-1253 -582 776 0
-1253 -582 -635 0
-1253 -582 -639 0
-1253 -582 -643 0
-1253 -582 -659 0
-1253 -582 -663 0
-1253 -582 -667 0
-1253 -582 -683 0
-1253 -582 -687 0
-1253 -582 -691 0
-1253 -582 -576 -591 0
-1253 -583 777 0
-1253 -583 -636 0
-1253 -583 -640 0
-1253 -583 -644 0
-1253 -583 -660 0
-1253 -583 -664 0
-1253 -583 -668 0
-1253 -583 -684 0
-1253 -583 -688 0
-1253 -583 -692 0
-1253 -583 -576 -592 0
-1253 -584 0
-1254 596 0
-1254 758 0
-1254 -571 0
-1254 -572 0
-1254 -585 775 0
-1254 -585 -622 0
-1254 -585 -626 0
-1254 -585 -630 0
-1254 -585 -646 0
-1254 -585 -650 0
-1254 -585 -654 0
-1254 -585 -670 0
-1254 -585 -674 0
-1254 -585 -678 0
-1254 -585 -573 -590 0
-1254 -586 776 0
-1254 -586 -623 0
-1254 -586 -627 0
-1254 -586 -631 0
-1254 -586 -647 0
-1254 -586 -651 0
-1254 -586 -655 0
-1254 -586 -671 0
-1254 -586 -675 0
-1254 -586 -679 0
-1254 -586 -573 -591 0
-1254 -587 777 0
-1254 -587 -624 0
-1254 -587 -628 0
-1254 -587 -632 0
-1254 -587 -648 0
-1254 -587 -652 0
-1254 -587 -656 0
-1254 -587 -672 0
-1254 -587 -676 0
-1254 -587 -680 0
-1254 -587 -573 -592 0
-1254 -588 0
-1255 596 0
-1255 759 0
-1255 -572 0
-1255 -585 775 0
-1255 -585 -626 0
-1255 -585 -630 0
-1255 -585 -634 0
-1255 -585 -650 0
-1255 -585 -654 0
-1255 -585 -658 0
-1255 -585 -674 0
-1255 -585 -678 0
-1255 -585 -682 0
-1255 -585 -574 -590 0
-1255 -586 776 0
-1255 -586 -627 0
-1255 -586 -631 0
-1255 -586 -635 0
-1255 -586 -651 0
-1255 -586 -655 0
-1255 -586 -659 0
-1255 -586 -675 0
-1255 -586 -679 0
-1255 -586 -683 0
-1255 -586 -574 -591 0
-1255 -587 777 0
-1255 -587 -628 0
-1255 -587 -632 0
-1255 -587 -636 0
-1255 -587 -652 0
-1255 -587 -656 0
-1255 -587 -660 0
-1255 -587 -676 0
-1255 -587 -680 0
-1255 -587 -684 0
-1255 -587 -574 -592 0
-1255 -588 0
-1256 596 0
-1256 760 0
-1256 -568 0
-1256 -585 775 0
-1256 -585 -630 0
-1256 -585 -634 0
-1256 -585 -638 0
-1256 -585 -654 0
-1256 -585 -658 0
-1256 -585 -662 0
-1256 -585 -678 0
-1256 -585 -682 0
-1256 -585 -686 0
-1256 -585 -575 -590 0
-1256 -586 776 0
-1256 -586 -631 0
-1256 -586 -635 0
-1256 -586 -639 0
-1256 -586 -655 0
-1256 -586 -659 0
-1256 -586 -663 0
-1256 -586 -679 0
-1256 -586 -683 0
-1256 -586 -687 0
-1256 -586 -575 -591 0
-1256 -587 777 0
-1256 -587 -632 0
-1256 -587 -636 0
-1256 -587 -640 0
-1256 -587 -656 0
-1256 -587 -660 0
-1256 -587 -664 0
-1256 -587 -680 0
-1256 -587 -684 0
-1256 -587 -688 0
-1256 -587 -575 -592 0
-1256 -588 0
-1257 596 0
-1257 761 0
-1257 -568 0
-1257 -569 0
-1257 -585 775 0
-1257 -585 -634 0
-1257 -585 -638 0
-1257 -585 -642 0
-1257 -585 -658 0
-1257 -585 -662 0
-1257 -585 -666 0
-1257 -585 -682 0
-1257 -585 -686 0
-1257 -585 -690 0
-1257 -585 -576 -590 0
-1257 -586 776 0
-1257 -586 -635 0
-1257 -586 -639 0
-1257 -586 -643 0
-1257 -586 -659 0
-1257 -586 -663 0
-1257 -586 -667 0
-1257 -586 -683 0
-1257 -586 -687 0
-1257 -586 -691 0
-1257 -586 -576 -591 0
-1257 -587 777 0
-1257 -587 -636 0
-1257 -587 -640 0
-1257 -587 -644 0
-1257 -587 -660 0
-1257 -587 -664 0
-1257 -587 -668 0
-1257 -587 -684 0
-1257 -587 -688 0
-1257 -587 -692 0
-1257 -587 -576 -592 0
-1257 -588 0
-1258 596 0
-1258 758 0
-1258 774 0
-1258 -621 0
-1258 -625 0
-1258 -629 0
-1258 -645 0
-1258 -649 0
-1258 -653 0
-1258 -669 0
-1258 -673 0
-1258 -677 0
-1258 -573 -589 0
-1259 596 0
-1259 759 0
-1259 774 0
-1259 -625 0
-1259 -629 0
-1259 -633 0
-1259 -649 0
-1259 -653 0
-1259 -657 0
-1259 -673 0
-1259 -677 0
-1259 -681 0
-1259 -574 -589 0
-1260 596 0
-1260 760 0
-1260 774 0
-1260 -629 0
-1260 -633 0
-1260 -637 0
-1260 -653 0
-1260 -657 0
-1260 -661 0
-1260 -677 0
-1260 -681 0
-1260 -685 0
-1260 -575 -589 0
-1261 596 0
-1261 761 0
-1261 774 0
-1261 -633 0
-1261 -637 0
-1261 -641 0
-1261 -657 0
-1261 -661 0
-1261 -665 0
-1261 -681 0
-1261 -685 0
-1261 -689 0
-1261 -576 -589 0
-556 741 1178 1179 1180 1181 1182 1183 1184 1185 1186 1187 1188 1189 1190 1191 1192 1193 1194 1195 1196 1197 1198 1199 1200 1201 0
-557 742 1178 1179 1180 1181 1182 1183 1184 1185 1186 1187 1188 1189 1190 1191 1192 1193 1194 1195 1196 1197 1198 1199 1200 1201 0
-558 743 1178 1179 1180 1181 1182 1183 1184 1185 1186 1187 1188 1189 1190 1191 1192 1193 1194 1195 1196 1197 1198 1199 1200 1201 0
-559 744 1178 1179 1180 1181 1182 1183 1184 1185 1186 1187 1188 1189 1190 1191 1192 1193 1194 1195 1196 1197 1198 1199 1200 1201 0
-560 745 1178 1179 1180 1181 1182 1183 1184 1185 1186 1187 1188 1189 1190 1191 1192 1193 1194 1195 1196 1197 1198 1199 1200 1201 0
-561 746 1178 1179 1180 1181 1182 1183 1184 1185 1186 1187 1188 1189 1190 1191 1192 1193 1194 1195 1196 1197 1198 1199 1200 1201 0
-577 762 1178 1179 1180 1181 1182 1183 1184 1185 1186 1187 1188 1189 1190 1191 1192 1193 1194 1195 1196 1197 1198 1199 1200 1201 0
-578 763 1178 1179 1180 1181 1182 1183 1184 1185 1186 1187 1188 1189 1190 1191 1192 1193 1194 1195 1196 1197 1198 1199 1200 1201 0
-579 764 1178 1179 1180 1181 1182 1183 1184 1185 1186 1187 1188 1189 1190 1191 1192 1193 1194 1195 1196 1197 1198 1199 1200 1201 0
-580 765 1178 1179 1180 1181 1182 1183 1184 1185 1186 1187 1188 1189 1190 1191 1192 1193 1194 1195 1196 1197 1198 1199 1200 1201 0
-562 747 1202 1203 1204 1205 1206 1207 1208 1209 1210 1211 1212 1213 1214 1215 1216 1217 1218 1219 1220 1221 1222 1223 1224 1225 0
-563 748 1202 1203 1204 1205 1206 1207 1208 1209 1210 1211 1212 1213 1214 1215 1216 1217 1218 1219 1220 1221 1222 1223 1224 1225 0
-564 749 1202 1203 1204 1205 1206 1207 1208 1209 1210 1211 1212 1213 1214 1215 1216 1217 1218 1219 1220 1221 1222 1223 1224 1225 0
-565 750 1202 1203 1204 1205 1206 1207 1208 1209 1210 1211 1212 1213 1214 1215 1216 1217 1218 1219 1220 1221 1222 1223 1224 1225 0
-566 751 1202 1203 1204 1205 1206 1207 1208 1209 1210 1211 1212 1213 1214 1215 1216 1217 1218 1219 1220 1221 1222 1223 1224 1225 0
-567 752 1202 1203 1204 1205 1206 1207 1208 1209 1210 1211 1212 1213 1214 1215 1216 1217 1218 1219 1220 1221 1222 1223 1224 1225 0
-581 766 1202 1203 1204 1205 1206 1207 1208 1209 1210 1211 1212 1213 1214 1215 1216 1217 1218 1219 1220 1221 1222 1223 1224 1225 0
-582 767 1202 1203 1204 1205 1206 1207 1208 1209 1210 1211 1212 1213 1214 1215 1216 1217 1218 1219 1220 1221 1222 1223 1224 1225 0
-583 768 1202 1203 1204 1205 1206 1207 1208 1209 1210 1211 1212 1213 1214 1215 1216 1217 1218 1219 1220 1221 1222 1223 1224 1225 0
-584 769 1202 1203 1204 1205 1206 1207 1208 1209 1210 1211 1212 1213 1214 1215 1216 1217 1218 1219 1220 1221 1222 1223 1224 1225 0
-568 753 1226 1227 1228 1229 1230 1231 1232 1233 1234 1235 1236 1237 1238 1239 1240 1241 1242 1243 1244 1245 0
-569 754 1226 1227 1228 1229 1230 1231 1232 1233 1234 1235 1236 1237 1238 1239 1240 1241 1242 1243 1244 1245 0
-570 755 1226 1227 1228 1229 1230 1231 1232 1233 1234 1235 1236 1237 1238 1239 1240 1241 1242 1243 1244 1245 0
-571 756 1226 1227 1228 1229 1230 1231 1232 1233 1234 1235 1236 1237 1238 1239 1240 1241 1242 1243 1244 1245 0
-572 757 1226 1227 1228 1229 1230 1231 1232 1233 1234 1235 1236 1237 1238 1239 1240 1241 1242 1243 1244 1245 0
-585 770 1226 1227 1228 1229 1230 1231 1232 1233 1234 1235 1236 1237 1238 1239 1240 1241 1242 1243 1244 1245 0
-586 771 1226 1227 1228 1229 1230 1231 1232 1233 1234 1235 1236 1237 1238 1239 1240 1241 1242 1243 1244 1245 0
-587 772 1226 1227 1228 1229 1230 1231 1232 1233 1234 1235 1236 1237 1238 1239 1240 1241 1242 1243 1244 1245 0
-588 773 1226 1227 1228 1229 1230 1231 1232 1233 1234 1235 1236 1237 1238 1239 1240 1241 1242 1243 1244 1245 0
-573 758 1246 1247 1248 1249 1250 1251 1252 1253 1254 1255 1256 1257 1258 1259 1260 1261 0
-574 759 1246 1247 1248 1249 1250 1251 1252 1253 1254 1255 1256 1257 1258 1259 1260 1261 0
-575 760 1246 1247 1248 1249 1250 1251 1252 1253 1254 1255 1256 1257 1258 1259 1260 1261 0
-576 761 1246 1247 1248 1249 1250 1251 1252 1253 1254 1255 1256 1257 1258 1259 1260 1261 0
-589 774 1246 1247 1248 1249 1250 1251 1252 1253 1254 1255 1256 1257 1258 1259 1260 1261 0
-590 775 1246 1247 1248 1249 1250 1251 1252 1253 1254 1255 1256 1257 1258 1259 1260 1261 0
-591 776 1246 1247 1248 1249 1250 1251 1252 1253 1254 1255 1256 1257 1258 1259 1260 1261 0
-592 777 1246 1247 1248 1249 1250 1251 1252 1253 1254 1255 1256 1257 1258 1259 1260 1261 0
